82
Coordinates from ORCA-job bacteriochlorophyllide_a_opt_b3lypd4_tzvp E -2225.781277433318
  Mg         41.87841668578728     47.90310737665372     22.61011544944524
  C          38.59754751990442     48.91845729857255     22.36333000275500
  C          42.80403630215172     50.59181398289181     20.76082645242080
  C          45.08920877834876     46.89516279826216     22.91445784229593
  C          40.84737965566651     45.13360003325754     24.43571803913136
  N          40.82132804518286     49.53267665914613     21.70500999450574
  C          39.47728801341160     49.76927316256643     21.73707034710793
  C          39.12720118426380     51.06634365429836     21.04216177424964
  C          40.43791501900679     51.40081797919059     20.29949416590719
  C          41.44185534524251     50.47522162799228     20.96102910745998
  C          40.34189452013524     51.12939854215993     18.79416088835034
  C          38.66966481973409     52.16018426159722     22.02172942455999
  C          39.63948159321048     52.39812561051901     23.17267714145673
  C          39.18565089088364     53.49062263452335     24.10422865249877
  O          38.17215363095314     54.13185501046740     24.00663356418397
  O          40.07420989648270     53.68497224512647     25.10854237719304
  N          43.64867773734140     48.63600142234540     21.97554344491207
  C          43.83597954701418     49.76914163192567     21.23057327798474
  C          45.23822330842876     49.97056914032287     20.98989907022326
  C          45.89728214114263     48.91397934977518     21.60285218975047
  C          44.87453308307046     48.08171457657342     22.20536832715630
  C          45.79645962156437     51.10490604165110     20.19289610269182
  C          47.34494945011922     48.63686245775742     21.66011612109372
  O          47.78007186933304     47.53602251231170     21.95869663163914
  C          48.32746201340873     49.75169400787625     21.36054770994791
  N          42.81860588715966     46.26150844169507     23.53652611454884
  C          44.15379368919302     46.06281659886689     23.50183878675252
  C          44.53478674459587     44.74830642425634     24.15312950568152
  C          43.22649680069267     44.32729837369264     24.85209891358329
  C          42.20624793541301     45.26902490342789     24.23953175712958
  C          45.01364455757672     43.73139338282733     23.11171997458840
  C          43.27135452008174     44.44070218518313     26.38704373150418
  C          43.51841229371641     45.85179809715953     26.91585579641405
  N          40.14232108510888     47.15116048836406     23.27054581521080
  C          39.84451838470111     46.00226248371546     23.98259193247037
  C          38.42163580184352     45.88170478347671     24.17236326026845
  C          37.88531642102122     47.00293781687334     23.55072331025934
  C          38.96615354025400     47.74175642954452     23.02041945699642
  C          37.70639178748182     44.78385001136176     24.88216355325084
  C          36.64763706128768     47.69718151566497     23.23722324155636
  O          35.49921617175725     47.40989601555479     23.47465555515333
  C          37.08696219374005     49.02147531486985     22.46497052110694
  C          36.37478394094630     49.08154251721709     21.13404667841244
  O          36.79379619684525     48.61963805019433     20.10183412286146
  O          35.18912069097921     49.69570289735309     21.25451688236414
  C          34.36316369263552     49.70117736744486     20.08006250284412
  H          43.10509721034595     51.43153607141998     20.15032849268171
  H          46.11975300828527     46.58279098355892     22.97960564280396
  H          40.52606551981565     44.27333233554010     25.00926393867241
  H          38.31939548334514     50.90118433941116     20.32714813722293
  H          40.72153283380271     52.44598441186081     20.45052350045967
  H          40.03908451516227     50.09666767320812     18.61000938923543
  H          39.60091418161883     51.78692898708660     18.33422686341855
  H          41.30006454846859     51.29636030428492     18.29951908691587
  H          38.52864345936294     53.08909271831824     21.46407607768423
  H          37.68964462120568     51.90657738318533     22.42833125436476
  H          39.77247072681508     51.49119621446929     23.76952100027962
  H          40.63968358183578     52.66218981088055     22.81838218437502
  H          39.71902901231511     54.39314760713747     25.66883624496655
  H          46.30268170873914     51.83681286603576     20.82743569723570
  H          46.52154770721452     50.76371844269149     19.45394643337886
  H          45.01242275281409     51.63337976275483     19.65470349217386
  H          49.31000377889929     49.43923957649029     21.70758221419350
  H          48.38189256005539     49.93080865851807     20.28446931860061
  H          48.04381626597974     50.69054257999727     21.83657057246240
  H          45.33758182291609     44.90597674365799     24.87774814874538
  H          42.97654077570088     43.29249259057602     24.60353342114545
  H          45.25691004776798     42.77990155011724     23.59015124315015
  H          44.23744607140152     43.54873295069677     22.36478807401440
  H          45.90338865129333     44.08996109150199     22.59266526032982
  H          42.32676152377189     44.06512083152921     26.79126212043283
  H          44.05160981843595     43.76517519172540     26.75233111436689
  H          43.54234352428097     45.85351518798652     28.00691430086263
  H          44.46989660687797     46.25774384473231     26.56678244458307
  H          42.72802929069570     46.53575560895115     26.60043007517173
  H          38.02558700188602     44.70778340675255     25.92560454720913
  H          36.63168047471519     44.95764449684334     24.86818245716375
  H          37.90047218525989     43.81403235098252     24.41553837282364
  H          36.74731267350379     49.86002225700289     23.07622277891306
  H          34.14011529931669     48.68056706299367     19.77109747756731
  H          33.45348915322023     50.22159950075450     20.36615977296844
  H          34.86361839113908     50.22115238161955     19.26341048693912
