79
Coordinates from ORCA-job chlorophyllide_a_opt_b3lypd4_tzvp E -2149.339356020570
  Mg          6.42161415410842     -0.57535449630355     -0.12749767398170
  C           4.02410968981136      1.85345170722603     -0.57474865339398
  C           5.44014111510273     -0.89229734185332      3.10519616448332
  C           8.73528359186158     -3.00822189969729      0.26372099141431
  C           7.46764612462265     -0.09438993788886     -3.39924140192111
  N           4.91802955386203      0.35084623652137      1.07277810430758
  C           4.02573648225454      1.31478943180458      0.68517674029972
  C           3.07557677200565      1.66854045832631      1.80608851236568
  C           3.74536074856436      1.00194071155298      3.02724644951244
  C           4.75967474249350      0.07202113309314      2.38373763618217
  C           4.42682128842734      2.01120465968986      3.95691350169261
  C           1.65689263869334      1.15036155388039      1.53050885240352
  C           0.65093498197536      1.65969273438404      2.55383127976584
  C          -0.74277678864088      1.13320809370651      2.32620614597104
  O          -1.07710429315644      0.36290593661306      1.46506522866895
  O          -1.61608278832107      1.63723695528565      3.23122098619057
  N           6.97301303604999     -1.75758201894097      1.40851560508187
  C           6.45400170430432     -1.75563751224901      2.66397832406869
  C           7.11094836477877     -2.75523862770466      3.47616020585228
  C           8.05196852442434     -3.35675777580435      2.67166517417576
  C           7.95196792176962     -2.72050318729616      1.36751054710771
  C           6.77161258018888     -3.06954858502008      4.89339831490244
  C           8.97502005399397     -4.43361079911648      2.97975854469553
  C           9.46110243079970     -4.75991906954650      4.18061460332944
  N           7.84474713609529     -1.40443728118570     -1.35531894626372
  C           8.69558774471887     -2.40469453608257     -1.00357503603441
  C           9.55175502266647     -2.74555511672581     -2.11528890430830
  C           9.19847921508544     -1.91671538265451     -3.14878575885398
  C           8.12411777238262     -1.08103685259883     -2.66099895932417
  C          10.59771822083027     -3.81075566396296     -2.10232910609713
  C           9.75270116290189     -1.89668211049141     -4.53754338795297
  C           8.95700285553104     -2.77959923981639     -5.50933834323837
  N           5.89718599702783      0.59092317915283     -1.67319942913688
  C           6.42023501260182      0.70736596337172     -2.95692711795785
  C           5.71892749611127      1.73912971293712     -3.68588309621535
  C           4.76953604455429      2.22028076929826     -2.79518649440457
  C           4.92064594339374      1.48952940397499     -1.59172165078224
  C           5.98138305250699      2.17914342366010     -5.08479042800250
  C           3.69509262076406      3.18461666658821     -2.62361603924661
  O           3.25575946428287      4.02050561438971     -3.37577003958692
  C           3.13264105340585      2.93835233381867     -1.15033873531427
  C           3.15448718703212      4.24182562152763     -0.38795968597043
  O           4.08836256150358      4.65839429160614      0.25057060495487
  O           1.99424106176304      4.90188972368923     -0.53410957160612
  C           1.94798029833610      6.21925748926981      0.03496509607881
  H           5.16058731345787     -0.97922326705018      4.14642027253132
  H           9.47852607951646     -3.78303987193835      0.39145927964167
  H           7.80577140021335      0.05990990634504     -4.41550059449264
  H           3.03880232594757      2.75349439128981      1.93183563304964
  H           3.02393308053555      0.41942496620593      3.60597465337074
  H           4.95921482588831      1.50777594692042      4.76516920616874
  H           5.14566718078053      2.61875361088855      3.40338332055516
  H           3.68870741843069      2.68277989265754      4.40114352362438
  H           1.33261624728978      1.45543648732064      0.53514729696396
  H           1.66099639272213      0.05779376245909      1.52270582684428
  H           0.93820620143668      1.39191631633417      3.57497094242275
  H           0.59964446461197      2.75272714214529      2.54184522285394
  H          -2.48644241998630      1.25951774945507      3.02746416103761
  H           5.73271053162574     -2.82649033023498      5.11762542303104
  H           6.92129565765995     -4.13017285935572      5.10187267811599
  H           7.39656493716419     -2.51042939779856      5.59722273463340
  H           9.30334841326956     -5.02507784819899      2.13049281994524
  H          10.14114098006332     -5.59426862875178      4.29178793829669
  H           9.22609868854478     -4.20331453682456      5.07700532109517
  H          10.15677625215810     -4.80546915710063     -1.98939058021433
  H          11.17291612878550     -3.81312168578208     -3.02788492245425
  H          11.30162688402627     -3.67532176821590     -1.27701669388404
  H           9.77362491265992     -0.87102218417203     -4.91511298468899
  H          10.79340625254186     -2.22877643629311     -4.51984309315082
  H           8.96298209617618     -3.82043680036797     -5.18018135381248
  H           7.91553888158138     -2.45764329948272     -5.56527276940940
  H           9.38191683978754     -2.73743026193986     -6.51458995779538
  H           5.27215391545291      2.94976887474427     -5.38205868856989
  H           6.99041007902824      2.58779481331728     -5.18864175893563
  H           5.89757405733867      1.34592021324896     -5.78771720315074
  H           2.09278529686612      2.62785407210219     -1.27176196847637
  H           2.10750657548702      6.17693219025666      1.11232881161117
  H           2.71310481444510      6.85137389418171     -0.41426218789094
  H           0.95615764682037      6.60025277410584     -0.19194069397859
