48
Coordinates from ORCA-job mg_phorbine_e_opt_b3lypd4_tzvp E -1568.919344758455
  Mg          6.58338224278116     -0.58003922275518      0.02850347809065
  C           4.40551858700984      2.07195386183925     -0.16877426607768
  C           5.44186911207044     -1.23917051183147      3.16150825006642
  C           8.75754593533104     -3.18155716020688      0.20459024020448
  C           7.70835698443738      0.14835550120055     -3.17641135661582
  N           5.11530711011941      0.31080701015270      1.30704479442968
  C           4.34494869564090      1.40970388090664      1.02798203629793
  C           3.48419180238113      1.78950333539889      2.20825875743746
  C           3.73224914432720      0.64420519458466      3.20100634384188
  C           4.83813081316819     -0.15860635003418      2.54286606280425
  N           7.01946622177261     -1.95644198891051      1.42978054436916
  C           6.44978085615367     -2.07256313221471      2.65540845472733
  C           7.03993534711105     -3.18890642254047      3.35710515715828
  C           7.96865003621487     -3.73341398273923      2.52817541918262
  C           7.95954637075274     -2.95955732362205      1.31114576741740
  N           7.98016466611431     -1.37675220369836     -1.25908497375303
  C           8.77513955693980     -2.44961481445470     -0.99662378136743
  C           9.62547034484361     -2.71285349030206     -2.12393432376720
  C           9.32749538928490     -1.77624646384934     -3.07006924752245
  C           8.29511246187753     -0.93972292176016     -2.52470030628450
  N           6.16597875144016      0.76665503526339     -1.39864016709472
  C           6.70828645149654      0.96997495165099     -2.66365569895555
  C           6.09167546799239      2.11269317173081     -3.27609136734011
  C           5.17781113566931      2.58780440711925     -2.35156156755553
  C           5.26430448853615      1.73012048564657     -1.22610032359296
  C           4.18331957803450      3.61859258126422     -2.07493570641074
  O           3.80628089773875      4.54684687682307     -2.74458575280656
  C           3.62616216447579      3.29350130437527     -0.61500643748745
  C           3.81409155323036      4.51171743437431      0.26066050129497
  O           4.77678753505834      4.72416168001854      0.95492794842488
  O           2.77461781163509      5.35006478549977      0.14175821449702
  C           2.90230458382719      6.60793300425574      0.82258459050280
  H           5.09353704378356     -1.47286135318878      4.15974056820606
  H           9.44865474342507     -4.01286853467270      0.26841927589296
  H           8.07297398418581      0.37218761912515     -4.17115833053633
  H           3.80986640005989      2.75497725190363      2.60137508373307
  H           2.43527096296137      1.89475383157898      1.92678543406792
  H           4.02974587412231      0.99338076389877      4.19026620113551
  H           2.84785092683743      0.01690108046457      3.33647466004434
  H           6.77240403701554     -3.50625788696767      4.35285754243431
  H           8.60751091781256     -4.58237824625432      2.71591445294184
  H          10.35366944553228     -3.50653038031639     -2.18408220681684
  H           9.76672374934217     -1.66198339018723     -4.04881290070925
  H           6.32290926144661      2.49999742064753     -4.25554033716405
  H           2.55454211757206      3.11006234443673     -0.72425948649201
  H           3.01541054805111      6.45288069043449      1.89535717582487
  H           3.76695554892275      7.15386297179420      0.44683681985098
  H           1.98571752216232      7.14988627691768      0.60711267367110
