
                                 *****************
                                 * O   R   C   A *
                                 *****************

                                            #,                                       
                                            ###                                      
                                            ####                                     
                                            #####                                    
                                            ######                                   
                                           ########,                                 
                                     ,,################,,,,,                         
                               ,,#################################,,                 
                          ,,##########################################,,             
                       ,#########################################, ''#####,          
                    ,#############################################,,   '####,        
                  ,##################################################,,,,####,       
                ,###########''''           ''''###############################       
              ,#####''   ,,,,##########,,,,          '''####'''          '####       
            ,##' ,,,,###########################,,,                        '##       
           ' ,,###''''                  '''############,,,                           
         ,,##''                                '''############,,,,        ,,,,,,###''
      ,#''                                            '''#######################'''  
     '                                                          ''''####''''         
             ,#######,   #######,   ,#######,      ##                                
            ,#'     '#,  ##    ##  ,#'     '#,    #''#        ,####,    ,#,          
            ##       ##  ##   ,#'  ##            #'  '#       #'       ,# #          
            ##       ##  #######   ##           ,######,      #####,      #          
            '#,     ,#'  ##    ##  '#,     ,#' ,#      #,     #,   #      #          
             '#######'   ##     ##  '#######'  #'      '#     '####' #    #          



                #########################################################
                #                        -***-                          #
                #          Department of theory and spectroscopy        #
                #                                                       #
                #                      Frank Neese                      #
                #                                                       #
                #     Directorship, Architecture, Infrastructure        #
                #                    SHARK, DRIVERS                     #
                #        Core code/Algorithms in most modules           #
                #                                                       #
                #        Max Planck Institute fuer Kohlenforschung      #
                #                Kaiser Wilhelm Platz 1                 #
                #                 D-45470 Muelheim/Ruhr                 #
                #                      Germany                          #
                #                                                       #
                #                  All rights reserved                  #
                #                        -***-                          #
                #########################################################


                         Program Version 6.1.1  -  RELEASE   -
                                (GIT: $487d211c$)
                          ($2025-11-21 10:33:24 +0100$)


 With contributions from (in alphabetic order):
[Max-Planck-Institut fuer Kohlenforschung]                               
  Daniel Aravena         : Magnetic Suceptibility                        
  Michael Atanasov       : Ab Initio Ligand Field Theory (pilot matlab implementation)
  Alexander A. Auer      : GIAO ZORA, VPT2 properties, NMR spectrum      
  Ute Becker             : All parallelization in ORCA, NUMFREQ, NUMCALC 
  Giovanni Bistoni       : ED, misc. LED, open-shell LED, HFLD           
  Dmytro Bykov           : pre 5.0 version of the SCF Hessian            
  Marcos Casanova-Páez   : Triplet and SCS-CIS(D). UHF-(DLPNO)-IP/EA/STEOM-CCSD. UHF-CVS-IP/STEOM-CCSD   
  Vijay G. Chilkuri      : MRCI spin determinant printing, contributions to CSF-ICE 
  Pauline Colinet        : FMM embedding                                 
  Dipayan Datta          : RHF DLPNO-CCSD density                        
  Achintya Kumar Dutta   : EOM-CC, STEOM-CC                              
  Nicolas Foglia         : Exact transition moments, OPA infrastructure, MCD improvements    
  Dmitry Ganyushin       : Spin-Orbit,Spin-Spin,Magnetic field MRCI      
  Miquel Garcia-Rates    : C-PCM and meta-GGA Hessian, CCSD/C-PCM, Gaussian charge scheme 
  Tiago L. C. Gouveia    : GS-ROHF, GS-ROCIS                             
  Yang Guo               : DLPNO-NEVPT2, F12-NEVPT2, CIM, IAO-localization        
  Andreas Hansen         : Spin unrestricted coupled pair/coupled cluster methods 
  Ingolf Harden          : AUTO-CI MPn and infrastructure                
  Benjamin Helmich-Paris : MC-RPA, TRAH-(SCF,CASSCF), AVAS, COSX integrals, SCF dyn. polar., MC-PDFT, srDFT 
  Lee Huntington         : MR-EOM, pCC                                   
  Robert Izsak           : Overlap fitted RIJCOSX, COSX-SCS-MP3, EOM     
  Riya Kayal             : Wick's Theorem for AUTO-CI, AUTO-CI UHF-CCSDT 
  Emily Kempfer          : AUTO-CI RHF CISDT and CCSDT, approximate NEVPT4
  Christian Kollmar      : KDIIS, OOCD, Brueckner-CCSD(T), CCSD density, CASPT2, CASPT2-K, improved NEVPT2 
  Axel Koslowski         : Symmetry handling                             
  Simone Kossmann        : meta-GGA functionals, TD-DFT gradient, OOMP2, (MP2 Hessian; deprecated post 5.0) 
  Lucas Lang             : DCDCAS, Hyperfine gauge corrections, ICE-SOC+SSC
  Marvin Lechner         : AUTO-CI (C++ implementation), FIC-MRCC        
  Spencer Leger          : CASSCF response                               
  Dagmar Lenk            : GEPOL surface, SMD, ORCA-2-JSON               
  Dimitrios Liakos       : Extrapolation schemes; Compound Job, Property file
  Dimitrios Manganas     : Further ROCIS development; embedding schemes. LFT, Crystal Embedding 
  Dimitrios Pantazis     : SARC Basis sets                               
  Anastasios Papadopoulos: AUTO-CI, single reference methods and gradients 
  Taras Petrenko         : pre 6.0 DFT Hessian and TD-DFT gradient,  ECA, NRVS 
  Petra Pikulova         : Analytic Raman intensities                    
  Peter Pinski           : DLPNO-MP2, DLPNO-MP2 Gradient                 
  Shashank Vittal Rao    : ES-AILFT, MagRelax                            
  Christoph Reimann      : Effective Core Potentials                     
  Marius Retegan         : Local ZFS, SOC                                
  Christoph Riplinger    : Optimizer, TS searches, QM/MM, DLPNO-CCSD(T), (RO)-DLPNO pert. Triples 
  Michael Roemelt        : Original ROCIS implementation, recursive CI coupling coefficients
  Masaaki Saitow         : Open-shell DLPNO-CCSD energy and density      
  Barbara Sandhoefer     : DKH picture change effects                    
  Yorick L. A. Schmerwitz: GMF and freeze-and-release deltaSCF, NEB S-IDPP initial path                    
  Kantharuban Sivalingam : CASSCF convergence/infrastructure, NEVPT2, NEVPT3, NEVPT4(SD), FIC-MRCI and CEPA variants
  Bernardo de Souza      : ESD, SOC TD-DFT                               
  Georgi L. Stoychev     : AutoAux, RI-MP2 NMR, DLPNO-MP2 response, X2C  
  Van Anh Tran           : RI-MP2 g-tensors                              
  Willem Van den Heuvel  : Paramagnetic NMR                              
  Zikuan Wang            : NOTCH, Electric field optimization            
  Frank Wennmohs         : Technical directorship and infrastructure     
  Hang Xu                : AUTO-CI-Response properties                   
                                                                         
[FACCTs GmbH]                                                            
  Markus Bursch, Nicolas Foglia, Miquel Garcia-Rates, Ingolf Harden, Hagen Neugebauer, Anastasios Papadopoulos, 
  Christoph Riplinger, Bernardo de Souza, Georgi L. Stoychev                                                    
                                                                 
  APM, various basis sets, CI-OPT, improved COSX, DLPNO-Multilevel,           
  DOCKER, DRACO, updates on ESD, Fragmentator, GOAT, IRC, LR-CPCM, L-BFGS, MBIS, meta-GGA TD-DFT gradient, ML-optimized integration grids, 
  MM, NACMEs, nearIR, NEB, NEB-TS, NL-DFT gradient (VV10), 2- and 3-layer-ONIOM, interface openCOSMO-RS, QMMM,   
  Crystal-QMMM, RESP, rigid body optimization, SF, symmetry and pop. for TD-DFT, various functionals, SOLVATOR                                   
                                                                         
[Other institutions]                                                     
  V. Asgeirsson          : NEB                                           
  Christoph Bannwarth    : sTDA-DFT, sTD-DFT, PBEh-3c, B97-3c, D3        
  Giovanni Bistoni       : ETS/NOCV, ADLD/ADEX, COVALED                  
  Martin Brehm           : Molecular dynamics                            
  Ronald Cardenas        : ETS/NOCV                                      
  Martina Colucci        : COVALED                                       
  Sebastian Ehlert       : rSCAN, r2SCAN, r2SCAN-3c, D4, dhf basis sets  
  Marvin Friede          : D4 for Fr, Ra, Ac-Lr                          
  Lars Goerigk           : TD-DFT with DH, B97 family of functionals     
  Stefan Grimme          : VdW corrections, initial TS optimization, DFT functionals, gCP, sTDA/sTD-DF 
  Waldemar Hujo          : DFT-NL                                        
  H. Jonsson             : NEB                                           
  Holger Kruse           : gCP                                           
  Marcel Mueller         : wB97X-3c, vDZP basis set                      
  Hagen Neugebauer       : wr2SCAN, Native XTB                           
  Gianluca Regni         : ADLD/ADEX                                     
  Tobias Risthaus        : pre 6.0 range-separated hybrid DFT and stability analysis
  Lukas Wittmann         : regularized MP2, r2SCAN double-hybrids, wr2SCAN        
                                                                         
We gratefully acknowledge several colleagues who have allowed us to      
interface, adapt or use parts of their codes:                            
  Ed Valeev, F. Pavosevic, A. Kumar             : LibInt (2-el integral package), F12 methods 
  Garnet Chan, S. Sharma, J. Yang, R. Olivares  : DMRG                   
  Ulf Ekstrom                                   : XCFun DFT Library      
  Mihaly Kallay                                 : mrcc  (arbitrary order and MRCC methods)
  Frank Weinhold                                : gennbo (NPA and NBO analysis)           
  Simon Mueller                                 : openCOSMO-RS                            
  Christopher J. Cramer and Donald G. Truhlar   : smd solvation model                     
  S Lehtola, MJT Oliveira, MAL Marques          : LibXC Library                           
  Liviu Ungur et al                             : ANISO software                          


 Your calculation uses the libint2 library for the computation of 2-el integrals
 For citations please refer to: http://libint.valeyev.net

 Your ORCA version has been built with support for libXC version: 7.0.0
 For citations please refer to: https://libxc.gitlab.io

 This ORCA versions uses:
   CBLAS   interface :  Fast vector & matrix operations
   LAPACKE interface :  Fast linear algebra routines
   SCALAPACK package :  Parallel linear algebra routines
   Shared memory     :  Shared parallel matrices
   BLAS/LAPACK       :  OpenBLAS 0.3.29  USE64BITINT DYNAMIC_ARCH NO_AFFINITY Haswell SINGLE_THREADED
        Core in use  :  Haswell
   Copyright (c) 2011-2014, The OpenBLAS Project


  ***********************************
  * Starting time: Fri Aug 14 00:30:49 2026
  * Host name:     steezy
  * Process ID:    445299
  * Working dir.:  /home/jannes/chlorophyll-ladder/012-bacteriochlorophyll-growth/bacteriochlorophyll_a/02_tddft_ch2cl2/tpss
  ***********************************

NOTE: MaxCore=2200 MB was set to SCF,MP2,MDCI,CIPSI,MRCI,RASCI and CIS
      => If you want to overwrite this, your respective input block should be placed after the MaxCore statement


***************************************
The coordinates will be read from file: /home/jannes/chlorophyll-ladder/012-bacteriochlorophyll-growth/bacteriochlorophyll_a/01_opt_extended/bacteriochlorophyll_a_opt_extended_b3lypd4_tzvp.xyz
***************************************


================================================================================

----- Orbital basis set information -----
Your calculation utilizes the basis: def2-TZVP
   F. Weigend and R. Ahlrichs, Phys. Chem. Chem. Phys. 7, 3297 (2005).

----- AuxJ basis set information -----
Your calculation utilizes the auxiliary basis: def2/J
   H-Rn: F. Weigend, Phys. Chem. Chem. Phys. 8, 1057 (2006).
   Fr-Lr: K. Eichkorn, F. Weigend, O. Treutler, R. Ahlrichs; Theor. Chem. Acc. 97, 119 (1997).

================================================================================
                                        WARNINGS
                       Please study these warnings very carefully!
================================================================================



WARNING: Found flag for RIJCOSX approximation but no HF exchange needed!
  ===> : RIJCOSX  will be disabled and Split-RI-J is turned on

WARNING: CIS/ROCIS methods need fully converged wavefunctions
  ===> : Setting SCFConvForced true
         You can overwrite this default with %scf ConvForced false 


================================================================================
                                       INPUT FILE
================================================================================
NAME = tddft.inp
|  1> %pal nprocs 4 end
|  2> %maxcore 2200
|  3> ! TPSS def2-TZVP def2/J RIJCOSX DefGrid3 TightSCF CPCM(CH2Cl2)
|  4> %tddft
|  5>   nroots 30
|  6>   tda false
|  7>   triplets false
|  8> end
|  9> * xyzfile 0 1 /home/jannes/chlorophyll-ladder/012-bacteriochlorophyll-growth/bacteriochlorophyll_a/01_opt_extended/bacteriochlorophyll_a_opt_extended_b3lypd4_tzvp.xyz
| 10> 
| 11>                          ****END OF INPUT****
================================================================================

                       ****************************
                       * Single Point Calculation *
                       ****************************

---------------------------------
CARTESIAN COORDINATES (ANGSTROEM)
---------------------------------
  Mg    41.654185   48.095014   22.382115
  C     38.395878   49.196119   22.227099
  C     42.679750   51.094416   21.176176
  C     44.841747   46.994541   22.608586
  C     40.525839   45.037233   23.583157
  N     40.650258   49.892075   21.790744
  C     39.309104   50.142195   21.824346
  C     39.001906   51.564507   21.414549
  C     40.340599   52.019553   20.796999
  C     41.309410   50.960472   21.289101
  C     40.295738   52.058053   19.265587
  C     38.534396   52.425597   22.600020
  C     39.486890   52.411392   23.791929
  C     38.931187   53.164502   24.977543
  O     37.757554   53.317191   25.210025
  O     39.916070   53.626758   25.765678
  N     43.456810   48.915214   21.992166
  C     43.684450   50.174742   21.505615
  C     45.096001   50.394661   21.358140
  C     45.721030   49.225922   21.772403
  C     44.668108   48.311345   22.167343
  C     45.697065   51.675403   20.876139
  C     47.161302   48.913623   21.819028
  O     47.595775   47.968588   22.458439
  C     48.134761   49.772692   21.036427
  N     42.541072   46.287612   22.997262
  C     43.875068   46.075791   22.972778
  C     44.213197   44.649768   23.360208
  C     42.880981   44.138485   23.943671
  C     41.892837   45.188841   23.472234
  C     44.681337   43.842016   22.145192
  C     42.883504   44.001105   25.478117
  C     43.152758   45.300525   26.234088
  N     39.885934   47.252563   22.804899
  C     39.549512   45.992179   23.266984
  C     38.118868   45.862645   23.380809
  C     37.618684   47.093849   22.975879
  C     38.726396   47.903031   22.638816
  C     37.364975   44.658723   23.830781
  C     36.401366   47.862170   22.773672
  O     35.242299   47.553691   22.911362
  C     36.884425   49.307576   22.304796
  C     36.215127   49.657560   20.996699
  O     36.663447   49.420929   19.902260
  O     35.029915   50.246642   21.210054
  C     34.241472   50.512071   20.040305
  C     39.494986   54.365743   26.952752
  C     38.950473   55.720426   26.627044
  C     39.676448   56.773630   26.243057
  C     41.171125   56.745343   26.092285
  C     38.999943   58.070852   25.883897
  C     39.010384   58.366607   24.376827
  C     38.270318   59.657093   24.030772
  C     38.124269   59.937774   22.528569
  C     39.482424   60.155203   21.856128
  C     37.178718   61.125838   22.302730
  C     36.762928   61.357191   20.850720
  C     35.744127   62.486379   20.702573
  C     35.207561   62.698600   19.279927
  C     36.308339   63.159752   18.321398
  C     34.023486   63.675351   19.301616
  C     33.263132   63.806379   17.982699
  C     32.027950   64.698003   18.101348
  C     31.164051   64.788870   16.836678
  C     31.910499   65.431018   15.665164
  C     29.868590   65.549157   17.127636
  H     43.012741   52.035993   20.762293
  H     45.867296   46.666859   22.678540
  H     40.175979   44.088007   23.968920
  H     38.212146   51.575882   20.661466
  H     40.630395   53.007479   21.164563
  H     41.271395   52.311340   18.847350
  H     39.995880   51.087560   18.864959
  H     39.573857   52.803152   18.923823
  H     38.402930   53.453395   22.248826
  H     37.550965   52.094894   22.934280
  H     39.654623   51.382225   24.127167
  H     40.468636   52.816685   23.545746
  H     46.498005   52.018533   21.531401
  H     46.121775   51.574317   19.874221
  H     44.954090   52.468979   20.835177
  H     49.091411   49.255906   21.003376
  H     47.783030   49.971608   20.023686
  H     48.277118   50.736295   21.530178
  H     45.006441   44.639331   24.111259
  H     42.626057   43.163125   23.521430
  H     44.890328   42.808566   22.431012
  H     43.913079   43.831660   21.368404
  H     45.589628   44.267151   21.715625
  H     41.917453   43.594531   25.791577
  H     43.635095   43.252218   25.748207
  H     43.137650   45.126904   27.311377
  H     44.127581   45.723247   25.983570
  H     42.394483   46.052847   26.008752
  H     36.300977   44.879238   23.899811
  H     37.492205   43.825890   23.132883
  H     37.708172   44.312578   24.809553
  H     36.540343   50.008910   23.067602
  H     33.323507   50.964839   20.404453
  H     34.767449   51.192836   19.371076
  H     34.027697   49.584411   19.510530
  H     38.752282   53.768642   27.479334
  H     40.402586   54.414373   27.550907
  H     37.872598   55.820537   26.676194
  H     41.623521   57.597522   26.607969
  H     41.619367   55.830591   26.475097
  H     41.455769   56.828644   25.039617
  H     37.964652   58.046846   26.232843
  H     39.493557   58.897600   26.409021
  H     40.042258   58.419719   24.022295
  H     38.542784   57.526455   23.852167
  H     37.269297   59.612776   24.473482
  H     38.775092   60.506815   24.507189
  H     37.657105   59.053728   22.073789
  H     39.380540   60.318337   20.782646
  H     39.983415   61.031060   22.280352
  H     40.141939   59.296864   21.990500
  H     36.275597   60.968995   22.902750
  H     37.648749   62.035818   22.696410
  H     37.644715   61.572527   20.243754
  H     36.332382   60.431367   20.449867
  H     34.896877   62.280187   21.365915
  H     36.186327   63.424616   21.060503
  H     34.829286   61.730985   18.922794
  H     35.935409   63.276077   17.303136
  H     36.713444   64.125181   18.640728
  H     37.134717   62.448953   18.282587
  H     33.321026   63.350476   20.077159
  H     34.381664   64.664174   19.614624
  H     33.926804   64.200016   17.209898
  H     32.955692   62.808976   17.645047
  H     31.404430   64.325162   18.921792
  H     32.336467   65.710075   18.392677
  H     30.895202   63.765309   16.545400
  H     31.268706   65.499592   14.783810
  H     32.230469   66.445712   15.921902
  H     32.798113   64.863348   15.382156
  H     29.223693   65.588677   16.246705
  H     29.304586   65.078558   17.936329
  H     30.082986   66.579302   17.427734

----------------------------
CARTESIAN COORDINATES (A.U.)
----------------------------
  NO LB      ZA    FRAG     MASS         X           Y           Z
   0 Mg   12.0000    0    24.305   78.715002   90.886405   42.296067
   1 C     6.0000    0    12.011   72.557694   92.967192   42.003129
   2 C     6.0000    0    12.011   80.653039   96.554453   40.017172
   3 C     6.0000    0    12.011   84.738622   88.806812   42.724035
   4 C     6.0000    0    12.011   76.582737   85.108036   44.565707
   5 N     7.0000    0    14.007   76.817854   94.282359   41.178538
   6 C     6.0000    0    12.011   74.283441   94.755017   41.242038
   7 C     6.0000    0    12.011   73.702921   97.442797   40.467633
   8 C     6.0000    0    12.011   76.232684   98.302708   39.300633
   9 C     6.0000    0    12.011   78.063471   96.301336   40.230571
  10 C     6.0000    0    12.011   76.147909   98.375463   36.406684
  11 C     6.0000    0    12.011   72.819456   99.070021   42.707848
  12 C     6.0000    0    12.011   74.619409   99.043177   44.960229
  13 C     6.0000    0    12.011   73.569282  100.466349   47.200716
  14 O     8.0000    0    15.999   71.351436  100.754889   47.640043
  15 O     8.0000    0    15.999   75.430440  101.339886   48.690076
  16 N     7.0000    0    14.007   82.121470   92.436357   41.559170
  17 C     6.0000    0    12.011   82.551647   94.816521   40.639723
  18 C     6.0000    0    12.011   85.219092   95.232108   40.361035
  19 C     6.0000    0    12.011   86.400225   93.023512   41.143878
  20 C     6.0000    0    12.011   84.410492   91.295211   41.890208
  21 C     6.0000    0    12.011   86.354937   97.652360   39.450185
  22 C     6.0000    0    12.011   89.121945   92.433351   41.231987
  23 O     8.0000    0    15.999   89.942979   90.647494   42.440300
  24 C     6.0000    0    12.011   90.961517   94.056757   39.753087
  25 N     7.0000    0    14.007   80.390975   87.470911   43.458526
  26 C     6.0000    0    12.011   82.911862   87.070627   43.412259
  27 C     6.0000    0    12.011   83.550833   84.375833   44.144395
  28 C     6.0000    0    12.011   81.033310   83.409650   45.246982
  29 C     6.0000    0    12.011   79.165989   85.394534   44.356094
  30 C     6.0000    0    12.011   84.435490   82.849403   41.848349
  31 C     6.0000    0    12.011   81.038077   83.150037   48.146664
  32 C     6.0000    0    12.011   81.546895   85.605585   49.575242
  33 N     7.0000    0    14.007   75.373492   89.294404   43.095013
  34 C     6.0000    0    12.011   74.737746   86.912622   43.968227
  35 C     6.0000    0    12.011   72.034220   86.667839   44.183325
  36 C     6.0000    0    12.011   71.089010   88.994477   43.418119
  37 C     6.0000    0    12.011   73.182283   90.523609   42.781162
  38 C     6.0000    0    12.011   70.609569   84.392756   45.033649
  39 C     6.0000    0    12.011   68.788612   90.446394   43.036003
  40 O     8.0000    0    15.999   66.598293   89.863453   43.296200
  41 C     6.0000    0    12.011   69.701462   93.177815   42.149955
  42 C     6.0000    0    12.011   68.436671   93.839189   39.678010
  43 O     8.0000    0    15.999   69.283873   93.392021   37.609821
  44 O     8.0000    0    15.999   66.196946   94.952393   40.081193
  45 C     6.0000    0    12.011   64.707004   95.453980   37.870688
  46 C     6.0000    0    12.011   74.634707  102.736365   50.933320
  47 C     6.0000    0    12.011   73.605726  105.296344   50.317821
  48 C     6.0000    0    12.011   74.977620  107.286612   49.592191
  49 C     6.0000    0    12.011   77.802151  107.233158   49.307274
  50 C     6.0000    0    12.011   73.699211  109.738006   48.913477
  51 C     6.0000    0    12.011   73.718942  110.296902   46.065528
  52 C     6.0000    0    12.011   72.320420  112.735569   45.411577
  53 C     6.0000    0    12.011   72.044427  113.265978   42.572826
  54 C     6.0000    0    12.011   74.610969  113.676859   41.302096
  55 C     6.0000    0    12.011   70.257595  115.511093   42.146052
  56 C     6.0000    0    12.011   69.471865  115.948288   39.402151
  57 C     6.0000    0    12.011   67.546610  118.082143   39.122193
  58 C     6.0000    0    12.011   66.532647  118.483183   36.433782
  59 C     6.0000    0    12.011   68.612817  119.354634   34.622425
  60 C     6.0000    0    12.011   64.295071  120.328975   36.474768
  61 C     6.0000    0    12.011   62.858210  120.576582   33.982377
  62 C     6.0000    0    12.011   60.524054  122.261508   34.206589
  63 C     6.0000    0    12.011   58.891521  122.433221   31.816711
  64 C     6.0000    0    12.011   60.302103  123.646705   29.602870
  65 C     6.0000    0    12.011   56.443455  123.869954   32.366541
  66 H     1.0000    0     1.008   81.282300   98.333776   39.235048
  67 H     1.0000    0     1.008   86.676627   88.187582   42.856230
  68 H     1.0000    0     1.008   75.921597   83.314258   45.294694
  69 H     1.0000    0     1.008   72.210490   97.464292   39.044513
  70 H     1.0000    0     1.008   76.780319  100.169618   39.995228
  71 H     1.0000    0     1.008   77.991634   98.854106   35.616329
  72 H     1.0000    0     1.008   75.581260   96.541497   35.649605
  73 H     1.0000    0     1.008   74.783751   99.783496   35.760843
  74 H     1.0000    0     1.008   72.571020  101.012277   42.044188
  75 H     1.0000    0     1.008   70.961039   98.445083   43.339508
  76 H     1.0000    0     1.008   74.936378   97.098333   45.593739
  77 H     1.0000    0     1.008   76.474639   99.809070   44.495012
  78 H     1.0000    0     1.008   87.868496   98.300781   40.688450
  79 H     1.0000    0     1.008   87.157524   97.461335   37.556835
  80 H     1.0000    0     1.008   84.950920   99.152001   39.372778
  81 H     1.0000    0     1.008   92.769322   93.080173   39.690629
  82 H     1.0000    0     1.008   90.296840   94.432654   37.839283
  83 H     1.0000    0     1.008   91.230531   95.877702   40.686139
  84 H     1.0000    0     1.008   85.049847   84.356111   45.563677
  85 H     1.0000    0     1.008   80.551574   81.566486   44.449060
  86 H     1.0000    0     1.008   84.830427   80.896466   42.388470
  87 H     1.0000    0     1.008   82.983692   82.829834   40.380432
  88 H     1.0000    0     1.008   86.151912   83.652791   41.036583
  89 H     1.0000    0     1.008   79.212507   82.381724   48.739016
  90 H     1.0000    0     1.008   82.458380   81.734846   48.657060
  91 H     1.0000    0     1.008   81.518344   85.277490   51.611023
  92 H     1.0000    0     1.008   83.389043   86.404414   49.101831
  93 H     1.0000    0     1.008   80.113962   87.027269   49.149418
  94 H     1.0000    0     1.008   68.598904   84.809469   45.164097
  95 H     1.0000    0     1.008   70.850000   82.818930   43.714813
  96 H     1.0000    0     1.008   71.258118   83.738637   46.883260
  97 H     1.0000    0     1.008   69.051240   94.503144   43.591450
  98 H     1.0000    0     1.008   62.972302   96.309587   38.558827
  99 H     1.0000    0     1.008   65.700956   96.740441   36.606029
 100 H     1.0000    0     1.008   64.303029   93.700958   36.869559
 101 H     1.0000    0     1.008   73.231201  101.608007   51.928416
 102 H     1.0000    0     1.008   76.349823  102.828263   52.063669
 103 H     1.0000    0     1.008   71.568839  105.485527   50.410701
 104 H     1.0000    0     1.008   78.657056  108.843542   50.281775
 105 H     1.0000    0     1.008   78.649206  105.504528   50.030683
 106 H     1.0000    0     1.008   78.340050  107.390573   47.318018
 107 H     1.0000    0     1.008   71.742796  109.692643   49.572889
 108 H     1.0000    0     1.008   74.632007  111.300335   49.905817
 109 H     1.0000    0     1.008   75.668902  110.397269   45.395558
 110 H     1.0000    0     1.008   72.835306  108.709246   45.074063
 111 H     1.0000    0     1.008   70.428764  112.651820   46.248178
 112 H     1.0000    0     1.008   73.274305  114.341310   46.311876
 113 H     1.0000    0     1.008   71.161616  111.595373   41.713417
 114 H     1.0000    0     1.008   74.418435  113.985139   39.273509
 115 H     1.0000    0     1.008   75.557705  115.331988   42.103763
 116 H     1.0000    0     1.008   75.857271  112.054833   41.556023
 117 H     1.0000    0     1.008   68.550943  115.214703   43.279925
 118 H     1.0000    0     1.008   71.145824  117.230707   42.889999
 119 H     1.0000    0     1.008   71.138202  116.355213   38.255150
 120 H     1.0000    0     1.008   68.658251  114.198734   38.644649
 121 H     1.0000    0     1.008   65.945540  117.692497   40.375727
 122 H     1.0000    0     1.008   68.382248  119.855154   39.798584
 123 H     1.0000    0     1.008   65.817811  116.654655   35.758899
 124 H     1.0000    0     1.008   67.908081  119.574457   32.698188
 125 H     1.0000    0     1.008   69.378355  121.179031   35.225870
 126 H     1.0000    0     1.008   70.174444  118.011418   34.549082
 127 H     1.0000    0     1.008   62.967614  119.715050   37.940333
 128 H     1.0000    0     1.008   64.971930  122.197580   37.066268
 129 H     1.0000    0     1.008   64.112367  121.320447   32.521995
 130 H     1.0000    0     1.008   62.277233  118.691764   33.344307
 131 H     1.0000    0     1.008   59.345772  121.556939   35.757005
 132 H     1.0000    0     1.008   61.107067  124.174045   34.757123
 133 H     1.0000    0     1.008   58.383471  120.498971   31.266275
 134 H     1.0000    0     1.008   59.089290  123.776292   27.937353
 135 H     1.0000    0     1.008   60.906759  125.564199   30.088034
 136 H     1.0000    0     1.008   61.979451  122.573964   29.068062
 137 H     1.0000    0     1.008   55.224776  123.944637   30.701822
 138 H     1.0000    0     1.008   55.377642  122.980652   33.894749
 139 H     1.0000    0     1.008   56.848605  125.816647   32.933644

--------------------------------
INTERNAL COORDINATES (ANGSTROEM)
--------------------------------
 Mg     0   0   0     0.000000000000     0.00000000     0.00000000
 C      1   0   0     3.442822576636     0.00000000     0.00000000
 C      1   2   0     3.391531285625    89.27379526     0.00000000
 C      1   2   3     3.379775498795   178.68423197   127.32406749
 C      1   2   3     3.473570507969    89.40887264   180.53794777
 N      1   2   3     2.141732801460    43.58003832     0.11090155
 C      6   1   2     1.364691414325   127.41948713     1.07056829
 C      7   6   1     1.511712742358   111.43666168   176.00992723
 C      8   7   6     1.542897338756   102.10315393    13.46498825
 C      6   1   2     1.351886955168   122.48131868   182.42025883
 C      9   8   7     1.532552736982   112.45554488   104.11554453
 C      8   7   6     1.537979908075   112.30863114   250.91324535
 C     12   8   7     1.525809123395   114.02584502    53.55888874
 C     13  12   8     1.510517084465   112.26203018   185.25100837
 O     14  13  12     1.206141450090   124.91634702    27.21103301
 O     14  13  12     1.343440084959   111.24274088   205.97397103
 N      1   2   3     2.018476041096   134.95416498     2.25914019
 C     17   1   2     1.369292792013   126.21998472   357.41567272
 C     18  17   1     1.436171650307   109.92181242   180.07534682
 C     19  18  17     1.388605156575   106.43211159   359.96393603
 C     17   1   2     1.364766257928   126.01833725   177.40321797
 C     19  18  17     1.494625119211   124.02723872   181.27915309
 C     20  19  18     1.474478961668   128.85645071   179.71182275
 O     23  20  19     1.220944265732   121.87679999   164.28552897
 C     23  20  19     1.515944062947   119.39966630   343.32681133
 N      1   2   3     2.105154224909   133.35062424   179.73527050
 C     26   1   2     1.350930508859   123.04757831   180.13538757
 C     27  26   1     1.515907608044   111.29225075   184.78404961
 C     28  27  26     1.541634719739   102.47179288   347.04668041
 C     26   1   2     1.361288157653   126.46498462   359.75567540
 C     28  27  26     1.532279387962   111.18551198   107.93223998
 C     29  28  27     1.540585487210   113.89877928   253.64836923
 C     32  29  28     1.527246755281   114.67265954    59.92822059
 N      1   2   3     2.003791824596    46.27529949   181.22260356
 C     34   1   2     1.383933156407   131.90213610   179.70637604
 C     35  34   1     1.440998978098   110.46196832   181.46862980
 C     36  35  34     1.389249564606   104.75952235   359.71581260
 C     34   1   2     1.339857884193   122.23746672     0.94590271
 C     36  35  34     1.490052685810   126.78392204   179.45899266
 C     37  36  35     1.453640074009   144.14207541   180.44565283
 O     40  37  36     1.207292425423   130.77273245   357.90957225
 C      2   1   3     1.517547159741   164.53417584   179.98171429
 C     42   2   1     1.510485445098   114.45640537   236.65105402
 O     43  42   2     1.206143037713   125.14517354    25.93115015
 O     43  42   2     1.340620926581   110.83793086   204.57463086
 C     45  43  42     1.435411877567   115.92326041   185.66164535
 C     16  14  13     1.460326472057   116.07910134   180.41601552
 C     47  16  14     1.495909802625   112.72042119   287.76467119
 C     48  47  16     1.335561344488   125.37145776   286.60779164
 C     49  48  47     1.502528875259   123.69258929   359.50974429
 C     49  48  47     1.506466067918   120.23168817   177.26804634
 C     51  49  48     1.535851292928   113.37278381   252.54242440
 C     52  51  49     1.527353279793   112.44123692   177.67555540
 C     53  52  51     1.535162712251   114.97892410   185.78419736
 C     54  53  52     1.531025231347   111.79895102   295.86302091
 C     54  53  52     1.535110829703   110.12421088   170.89546266
 C     56  54  53     1.527985241248   115.12482927   189.93479190
 C     57  56  54     1.528059843717   112.67145119   175.80152829
 C     58  57  56     1.535207680015   115.15201269   184.36514357
 C     59  58  57     1.530735740720   111.75167665   294.87378157
 C     59  58  57     1.535104571984   110.14820679   169.92583379
 C     61  59  58     1.528021002671   115.22572765   188.99215594
 C     62  61  59     1.527987654961   112.66020692   175.06684628
 C     63  62  61     1.534263987452   115.19651454   184.22607196
 C     64  63  62     1.530354066497   112.40875057   296.34072602
 C     64  63  62     1.530003248709   110.45258640   172.42960905
 H      3   1   2     1.081087118111   178.22904167   254.25841233
 H      4   1  34     1.078896998460   178.66999951   195.24121964
 H      5   1   2     1.082703074296   179.35529804   265.21365120
 H      8   7   6     1.091322363625   110.11642317   130.73935530
 H      9   8   7     1.093198737172   111.22043992   226.33211750
 H     11   9   8     1.091322069902   111.26088326   184.14167391
 H     11   9   8     1.091913112386   110.63067436   304.35879309
 H     11   9   8     1.092285711510   110.43463281    63.94681169
 H     12   8   7     1.094069682986   108.36514711   175.82700546
 H     12   8   7     1.090060544107   109.92221944   291.20274690
 H     13  12   8     1.095310260924   110.08619827   303.74708667
 H     13  12   8     1.090271423672   112.47432966    62.07341105
 H     22  19  18     1.090234665521   111.79615968   130.59689718
 H     22  19  18     1.092902623323   111.87995063   250.76370436
 H     22  19  18     1.087865281676   111.25864342    10.84542860
 H     25  23  20     1.087813424053   108.13087679   193.24939594
 H     25  23  20     1.090379910872   112.06919779   314.66374505
 H     25  23  20     1.092055159606   110.50754805    74.56045501
 H     28  27  26     1.092439327820   110.28311461   228.40621121
 H     29  28  27     1.092978321018   110.56698860   132.09706977
 H     31  28  27     1.092423451422   110.46789319   181.85517930
 H     31  28  27     1.092578376366   110.72768338   301.64546609
 H     31  28  27     1.090991084792   111.17086532    61.71455896
 H     32  29  28     1.093989303176   108.48655718   182.37815009
 H     32  29  28     1.094838061988   107.92861482   297.20798416
 H     33  32  29     1.091294590087   110.53826935   179.90369813
 H     33  32  29     1.091665379266   111.91938455   299.68319771
 H     33  32  29     1.091671815044   111.20540736    60.34421836
 H     39  36  35     1.088799048765   110.48320409   175.04821543
 H     39  36  35     1.094011147724   111.32130243   294.98593094
 H     39  36  35     1.093433088526   111.54865231    54.51817351
 H     42   2   1     1.091849334508   113.37941207   111.51741459
 H     46  45  43     1.086398841088   105.54728233   178.88567943
 H     46  45  43     1.089936063876   110.53595156   298.60678678
 H     46  45  43     1.089455128400   110.27975468    59.38828671
 H     47  16  14     1.088773145007   108.19933702    50.53344915
 H     47  16  14     1.088068223579   103.23631702   166.10474124
 H     48  47  16     1.083628784739   115.83976796   104.08948511
 H     50  49  48     1.093983941695   110.45088940   229.16933306
 H     50  49  48     1.088226384394   112.97161483   351.00163982
 H     50  49  48     1.093651004596   110.73587103   111.23748701
 H     51  49  48     1.092778788349   109.29289796    14.22799128
 H     51  49  48     1.096778797393   109.44133268   130.93652465
 H     52  51  49     1.092373284981   109.52725167   300.38175508
 H     52  51  49     1.095341275632   108.62729540    56.40608257
 H     53  52  51     1.095445035900   108.48320544   307.33132390
 H     53  52  51     1.097177209814   109.45417681    62.60794460
 H     54  53  52     1.098454942184   107.36408651    54.19429773
 H     55  54  53     1.090576583699   111.75846323   177.91528680
 H     55  54  53     1.094569733198   110.45303052   297.83874869
 H     55  54  53     1.090762170152   111.74678440    57.80211755
 H     56  54  53     1.095559821910   108.44451781   311.69982186
 H     56  54  53     1.097259055719   108.97760134    66.63796595
 H     57  56  54     1.091937445561   109.77554527   298.50983537
 H     57  56  54     1.096906114294   109.04324722    54.56233822
 H     58  57  56     1.095613864776   108.53095530   306.13502026
 H     58  57  56     1.097243751693   109.36323617    61.30525587
 H     59  58  57     1.098597074055   107.44770152    53.20559313
 H     60  59  58     1.090626968696   111.76967582   177.95116219
 H     60  59  58     1.094593528292   110.43686888   297.89346797
 H     60  59  58     1.090706996051   111.76467176    57.82550027
 H     61  59  58     1.095655424138   108.41286796   310.76719854
 H     61  59  58     1.097285926847   109.00396266    65.64718767
 H     62  61  59     1.092076323728   109.83485239   297.58197610
 H     62  61  59     1.096968748863   109.09748210    53.69540355
 H     63  62  61     1.095863261513   108.63552213   306.11394692
 H     63  62  61     1.097426304316   109.35985726    61.33229487
 H     64  63  62     1.097633898378   107.54332761    54.98227989
 H     65  64  63     1.092421699897   110.94023736   180.99111508
 H     65  64  63     1.094485645193   110.61227749   300.35308129
 H     65  64  63     1.090963986591   112.15366258    60.71309618
 H     66  64  63     1.092471391248   111.37373074   182.24209523
 H     66  64  63     1.092496296978   111.33562207   302.74848061
 H     66  64  63     1.094177512146   110.73766633    62.51731883

---------------------------
INTERNAL COORDINATES (A.U.)
---------------------------
 Mg     0   0   0     0.000000000000     0.00000000     0.00000000
 C      1   0   0     6.505991797524     0.00000000     0.00000000
 C      1   2   0     6.409065304457    89.27379526     0.00000000
 C      1   2   3     6.386850086860   178.68423197   127.32406749
 C      1   2   3     6.564096966928    89.40887264   180.53794777
 N      1   2   3     4.047288446795    43.58003832     0.11090155
 C      6   1   2     2.578893030389   127.41948713     1.07056829
 C      7   6   1     2.856723076216   111.43666168   176.00992723
 C      8   7   6     2.915653423005   102.10315393    13.46498825
 C      6   1   2     2.554696109289   122.48131868   182.42025883
 C      9   8   7     2.896104958687   112.45554488   104.11554453
 C      8   7   6     2.906360825736   112.30863114   250.91324535
 C     12   8   7     2.883361375856   114.02584502    53.55888874
 C     13  12   8     2.854463610248   112.26203018   185.25100837
 O     14  13  12     2.279277019441   124.91634702    27.21103301
 O     14  13  12     2.538733837904   111.24274088   205.97397103
 N      1   2   3     3.814366925553   134.95416498     2.25914019
 C     17   1   2     2.587588374058   126.21998472   357.41567272
 C     18  17   1     2.713971100383   109.92181242   180.07534682
 C     19  18  17     2.624083454077   106.43211159   359.96393603
 C     17   1   2     2.579034464300   126.01833725   177.40321797
 C     19  18  17     2.824432148189   124.02723872   181.27915309
 C     20  19  18     2.786361427781   128.85645071   179.71182275
 O     23  20  19     2.307250287016   121.87679999   164.28552897
 C     23  20  19     2.864719113314   119.39966630   343.32681133
 N      1   2   3     3.978164954745   133.35062424   179.73527050
 C     26   1   2     2.552888687702   123.04757831   180.13538757
 C     27  26   1     2.864650223531   111.29225075   184.78404961
 C     28  27  26     2.913267418852   102.47179288   347.04668041
 C     26   1   2     2.572461807314   126.46498462   359.75567540
 C     28  27  26     2.895588403900   111.18551198   107.93223998
 C     29  28  27     2.911284656720   113.89877928   253.64836923
 C     32  29  28     2.886078106402   114.67265954    59.92822059
 N      1   2   3     3.786617777878    46.27529949   181.22260356
 C     34   1   2     2.615254653263   131.90213610   179.70637604
 C     35  34   1     2.723093427866   110.46196832   181.46862980
 C     36  35  34     2.625301208774   104.75952235   359.71581260
 C     34   1   2     2.531964459500   122.23746672     0.94590271
 C     36  35  34     2.815791501295   126.78392204   179.45899266
 C     37  36  35     2.746981637170   144.14207541   180.44565283
 O     40  37  36     2.281452047607   130.77273245   357.90957225
 C      2   1   3     2.867748527220   164.53417584   179.98171429
 C     42   2   1     2.854403820509   114.45640537   236.65105402
 O     43  42   2     2.279280019613   125.14517354    25.93115015
 O     43  42   2     2.533406400642   110.83793086   204.57463086
 C     45  43  42     2.712535337980   115.92326041   185.66164535
 C     16  14  13     2.759617098303   116.07910134   180.41601552
 C     47  16  14     2.826859848010   112.72042119   287.76467119
 C     48  47  16     2.523845176134   125.37145776   286.60779164
 C     49  48  47     2.839368082549   123.69258929   359.50974429
 C     49  48  47     2.846808298409   120.23168817   177.26804634
 C     51  49  48     2.902338326063   113.37278381   252.54242440
 C     52  51  49     2.886279408555   112.44123692   177.67555540
 C     53  52  51     2.901037097162   114.97892410   185.78419736
 C     54  53  52     2.893218391368   111.79895102   295.86302091
 C     54  53  52     2.900939053356   110.12421088   170.89546266
 C     56  54  53     2.887473642633   115.12482927   189.93479190
 C     57  56  54     2.887614620867   112.67145119   175.80152829
 C     58  57  56     2.901122073921   115.15201269   184.36514357
 C     59  58  57     2.892671333365   111.75167665   294.87378157
 C     59  58  57     2.900927227981   110.14820679   169.92583379
 C     61  59  58     2.887541221928   115.22572765   188.99215594
 C     62  61  59     2.887478203888   112.66020692   175.06684628
 C     63  62  61     2.899338753422   115.19651454   184.22607196
 C     64  63  62     2.891950073612   112.40875057   296.34072602
 C     64  63  62     2.891287124070   110.45258640   172.42960905
 H      3   1   2     2.042958580139   178.22904167   254.25841233
 H      4   1  34     2.038819853800   178.66999951   195.24121964
 H      5   1   2     2.046012294774   179.35529804   265.21365120
 H      8   7   6     2.062300391075   110.11642317   130.73935530
 H      9   8   7     2.065846223204   111.22043992   226.33211750
 H     11   9   8     2.062299836019   111.26088326   184.14167391
 H     11   9   8     2.063416744447   110.63067436   304.35879309
 H     11   9   8     2.064120854749   110.43463281    63.94681169
 H     12   8   7     2.067492072269   108.36514711   175.82700546
 H     12   8   7     2.059915897756   109.92221944   291.20274690
 H     13  12   8     2.069836424820   110.08619827   303.74708667
 H     13  12   8     2.060314402381   112.47432966    62.07341105
 H     22  19  18     2.060244939543   111.79615968   130.59689718
 H     22  19  18     2.065286649124   111.87995063   250.76370436
 H     22  19  18     2.055767452968   111.25864342    10.84542860
 H     25  23  20     2.055669456264   108.13087679   193.24939594
 H     25  23  20     2.060519413477   112.06919779   314.66374505
 H     25  23  20     2.063685174790   110.50754805    74.56045501
 H     28  27  26     2.064411147505   110.28311461   228.40621121
 H     29  28  27     2.065429697037   110.56698860   132.09706977
 H     31  28  27     2.064381145461   110.46789319   181.85517930
 H     31  28  27     2.064673911177   110.72768338   301.64546609
 H     31  28  27     2.061674364807   111.17086532    61.71455896
 H     32  29  28     2.067340176442   108.48655718   182.37815009
 H     32  29  28     2.068944098150   107.92861482   297.20798416
 H     33  32  29     2.062247906694   110.53826935   179.90369813
 H     33  32  29     2.062948596695   111.91938455   299.68319771
 H     33  32  29     2.062960758553   111.20540736    60.34421836
 H     39  36  35     2.057532017041   110.48320409   175.04821543
 H     39  36  35     2.067381456656   111.32130243   294.98593094
 H     39  36  35     2.066289083081   111.54865231    54.51817351
 H     42   2   1     2.063296221725   113.37941207   111.51741459
 H     46  45  43     2.052996281866   105.54728233   178.88567943
 H     46  45  43     2.059680664210   110.53595156   298.60678678
 H     46  45  43     2.058771827873   110.27975468    59.38828671
 H     47  16  14     2.057483066032   108.19933702    50.53344915
 H     47  16  14     2.056150957587   103.23631702   166.10474124
 H     48  47  16     2.047761633991   115.83976796   104.08948511
 H     50  49  48     2.067330044711   110.45088940   229.16933306
 H     50  49  48     2.056449838212   112.97161483   351.00163982
 H     50  49  48     2.066700884774   110.73587103   111.23748701
 H     51  49  48     2.065052634938   109.29289796    14.22799128
 H     51  49  48     2.072611556565   109.44133268   130.93652465
 H     52  51  49     2.064286344627   109.52725167   300.38175508
 H     52  51  49     2.069895034124   108.62729540    56.40608257
 H     53  52  51     2.070091112614   108.48320544   307.33132390
 H     53  52  51     2.073364446928   109.45417681    62.60794460
 H     54  53  52     2.075779011180   107.36408651    54.19429773
 H     55  54  53     2.060891071258   111.75846323   177.91528680
 H     55  54  53     2.068437030224   110.45303052   297.83874869
 H     55  54  53     2.061241778830   111.74678440    57.80211755
 H     56  54  53     2.070308026738   108.44451781   311.69982186
 H     56  54  53     2.073519113274   108.97760134    66.63796595
 H     57  56  54     2.063462727485   109.77554527   298.50983537
 H     57  56  54     2.072852150640   109.04324722    54.56233822
 H     58  57  56     2.070410152953   108.53095530   306.13502026
 H     58  57  56     2.073490192857   109.36323617    61.30525587
 H     59  58  57     2.076047601491   107.44770152    53.20559313
 H     60  59  58     2.060986285105   111.76967582   177.95116219
 H     60  59  58     2.068481996434   110.43686888   297.89346797
 H     60  59  58     2.061137514889   111.76467176    57.82550027
 H     61  59  58     2.070488688765   108.41286796   310.76719854
 H     61  59  58     2.073569892347   109.00396266    65.64718767
 H     62  61  59     2.063725169186   109.83485239   297.58197610
 H     62  61  59     2.072970512822   109.09748210    53.69540355
 H     63  62  61     2.070881444485   108.63552213   306.11394692
 H     63  62  61     2.073835167319   109.35985726    61.33229487
 H     64  63  62     2.074227463243   107.54332761    54.98227989
 H     65  64  63     2.064377835557   110.94023736   180.99111508
 H     65  64  63     2.068278126922   110.61227749   300.35308129
 H     65  64  63     2.061623156628   112.15366258    60.71309618
 H     66  64  63     2.064471738602   111.37373074   182.24209523
 H     66  64  63     2.064518803611   111.33562207   302.74848061
 H     66  64  63     2.067695839851   110.73766633    62.51731883

---------------------
BASIS SET INFORMATION
---------------------
There are 5 groups of distinct atoms

 Group   1 Type Mg  : 14s8p3d contracted to 5s4p3d pattern {73211/5111/111}
 Group   2 Type C   : 11s6p2d1f contracted to 5s3p2d1f pattern {62111/411/11/1}
 Group   3 Type N   : 11s6p2d1f contracted to 5s3p2d1f pattern {62111/411/11/1}
 Group   4 Type O   : 11s6p2d1f contracted to 5s3p2d1f pattern {62111/411/11/1}
 Group   5 Type H   : 5s1p contracted to 3s1p pattern {311/1}

Atom   0Mg   basis set group =>   1
Atom   1C    basis set group =>   2
Atom   2C    basis set group =>   2
Atom   3C    basis set group =>   2
Atom   4C    basis set group =>   2
Atom   5N    basis set group =>   3
Atom   6C    basis set group =>   2
Atom   7C    basis set group =>   2
Atom   8C    basis set group =>   2
Atom   9C    basis set group =>   2
Atom  10C    basis set group =>   2
Atom  11C    basis set group =>   2
Atom  12C    basis set group =>   2
Atom  13C    basis set group =>   2
Atom  14O    basis set group =>   4
Atom  15O    basis set group =>   4
Atom  16N    basis set group =>   3
Atom  17C    basis set group =>   2
Atom  18C    basis set group =>   2
Atom  19C    basis set group =>   2
Atom  20C    basis set group =>   2
Atom  21C    basis set group =>   2
Atom  22C    basis set group =>   2
Atom  23O    basis set group =>   4
Atom  24C    basis set group =>   2
Atom  25N    basis set group =>   3
Atom  26C    basis set group =>   2
Atom  27C    basis set group =>   2
Atom  28C    basis set group =>   2
Atom  29C    basis set group =>   2
Atom  30C    basis set group =>   2
Atom  31C    basis set group =>   2
Atom  32C    basis set group =>   2
Atom  33N    basis set group =>   3
Atom  34C    basis set group =>   2
Atom  35C    basis set group =>   2
Atom  36C    basis set group =>   2
Atom  37C    basis set group =>   2
Atom  38C    basis set group =>   2
Atom  39C    basis set group =>   2
Atom  40O    basis set group =>   4
Atom  41C    basis set group =>   2
Atom  42C    basis set group =>   2
Atom  43O    basis set group =>   4
Atom  44O    basis set group =>   4
Atom  45C    basis set group =>   2
Atom  46C    basis set group =>   2
Atom  47C    basis set group =>   2
Atom  48C    basis set group =>   2
Atom  49C    basis set group =>   2
Atom  50C    basis set group =>   2
Atom  51C    basis set group =>   2
Atom  52C    basis set group =>   2
Atom  53C    basis set group =>   2
Atom  54C    basis set group =>   2
Atom  55C    basis set group =>   2
Atom  56C    basis set group =>   2
Atom  57C    basis set group =>   2
Atom  58C    basis set group =>   2
Atom  59C    basis set group =>   2
Atom  60C    basis set group =>   2
Atom  61C    basis set group =>   2
Atom  62C    basis set group =>   2
Atom  63C    basis set group =>   2
Atom  64C    basis set group =>   2
Atom  65C    basis set group =>   2
Atom  66H    basis set group =>   5
Atom  67H    basis set group =>   5
Atom  68H    basis set group =>   5
Atom  69H    basis set group =>   5
Atom  70H    basis set group =>   5
Atom  71H    basis set group =>   5
Atom  72H    basis set group =>   5
Atom  73H    basis set group =>   5
Atom  74H    basis set group =>   5
Atom  75H    basis set group =>   5
Atom  76H    basis set group =>   5
Atom  77H    basis set group =>   5
Atom  78H    basis set group =>   5
Atom  79H    basis set group =>   5
Atom  80H    basis set group =>   5
Atom  81H    basis set group =>   5
Atom  82H    basis set group =>   5
Atom  83H    basis set group =>   5
Atom  84H    basis set group =>   5
Atom  85H    basis set group =>   5
Atom  86H    basis set group =>   5
Atom  87H    basis set group =>   5
Atom  88H    basis set group =>   5
Atom  89H    basis set group =>   5
Atom  90H    basis set group =>   5
Atom  91H    basis set group =>   5
Atom  92H    basis set group =>   5
Atom  93H    basis set group =>   5
Atom  94H    basis set group =>   5
Atom  95H    basis set group =>   5
Atom  96H    basis set group =>   5
Atom  97H    basis set group =>   5
Atom  98H    basis set group =>   5
Atom  99H    basis set group =>   5
Atom 100H    basis set group =>   5
Atom 101H    basis set group =>   5
Atom 102H    basis set group =>   5
Atom 103H    basis set group =>   5
Atom 104H    basis set group =>   5
Atom 105H    basis set group =>   5
Atom 106H    basis set group =>   5
Atom 107H    basis set group =>   5
Atom 108H    basis set group =>   5
Atom 109H    basis set group =>   5
Atom 110H    basis set group =>   5
Atom 111H    basis set group =>   5
Atom 112H    basis set group =>   5
Atom 113H    basis set group =>   5
Atom 114H    basis set group =>   5
Atom 115H    basis set group =>   5
Atom 116H    basis set group =>   5
Atom 117H    basis set group =>   5
Atom 118H    basis set group =>   5
Atom 119H    basis set group =>   5
Atom 120H    basis set group =>   5
Atom 121H    basis set group =>   5
Atom 122H    basis set group =>   5
Atom 123H    basis set group =>   5
Atom 124H    basis set group =>   5
Atom 125H    basis set group =>   5
Atom 126H    basis set group =>   5
Atom 127H    basis set group =>   5
Atom 128H    basis set group =>   5
Atom 129H    basis set group =>   5
Atom 130H    basis set group =>   5
Atom 131H    basis set group =>   5
Atom 132H    basis set group =>   5
Atom 133H    basis set group =>   5
Atom 134H    basis set group =>   5
Atom 135H    basis set group =>   5
Atom 136H    basis set group =>   5
Atom 137H    basis set group =>   5
Atom 138H    basis set group =>   5
Atom 139H    basis set group =>   5
---------------------------------
AUXILIARY/J BASIS SET INFORMATION
---------------------------------
There are 5 groups of distinct atoms

 Group   1 Type Mg  : 14s5p5d2f1g contracted to 8s4p4d1f1g pattern {71111111/2111/2111/2/1}
 Group   2 Type C   : 12s5p4d2f1g contracted to 6s4p3d1f1g pattern {711111/2111/211/2/1}
 Group   3 Type N   : 12s5p4d2f1g contracted to 6s4p3d1f1g pattern {711111/2111/211/2/1}
 Group   4 Type O   : 12s5p4d2f1g contracted to 6s4p3d1f1g pattern {711111/2111/211/2/1}
 Group   5 Type H   : 5s2p1d contracted to 3s1p1d pattern {311/2/1}

Atom   0Mg   basis set group =>   1
Atom   1C    basis set group =>   2
Atom   2C    basis set group =>   2
Atom   3C    basis set group =>   2
Atom   4C    basis set group =>   2
Atom   5N    basis set group =>   3
Atom   6C    basis set group =>   2
Atom   7C    basis set group =>   2
Atom   8C    basis set group =>   2
Atom   9C    basis set group =>   2
Atom  10C    basis set group =>   2
Atom  11C    basis set group =>   2
Atom  12C    basis set group =>   2
Atom  13C    basis set group =>   2
Atom  14O    basis set group =>   4
Atom  15O    basis set group =>   4
Atom  16N    basis set group =>   3
Atom  17C    basis set group =>   2
Atom  18C    basis set group =>   2
Atom  19C    basis set group =>   2
Atom  20C    basis set group =>   2
Atom  21C    basis set group =>   2
Atom  22C    basis set group =>   2
Atom  23O    basis set group =>   4
Atom  24C    basis set group =>   2
Atom  25N    basis set group =>   3
Atom  26C    basis set group =>   2
Atom  27C    basis set group =>   2
Atom  28C    basis set group =>   2
Atom  29C    basis set group =>   2
Atom  30C    basis set group =>   2
Atom  31C    basis set group =>   2
Atom  32C    basis set group =>   2
Atom  33N    basis set group =>   3
Atom  34C    basis set group =>   2
Atom  35C    basis set group =>   2
Atom  36C    basis set group =>   2
Atom  37C    basis set group =>   2
Atom  38C    basis set group =>   2
Atom  39C    basis set group =>   2
Atom  40O    basis set group =>   4
Atom  41C    basis set group =>   2
Atom  42C    basis set group =>   2
Atom  43O    basis set group =>   4
Atom  44O    basis set group =>   4
Atom  45C    basis set group =>   2
Atom  46C    basis set group =>   2
Atom  47C    basis set group =>   2
Atom  48C    basis set group =>   2
Atom  49C    basis set group =>   2
Atom  50C    basis set group =>   2
Atom  51C    basis set group =>   2
Atom  52C    basis set group =>   2
Atom  53C    basis set group =>   2
Atom  54C    basis set group =>   2
Atom  55C    basis set group =>   2
Atom  56C    basis set group =>   2
Atom  57C    basis set group =>   2
Atom  58C    basis set group =>   2
Atom  59C    basis set group =>   2
Atom  60C    basis set group =>   2
Atom  61C    basis set group =>   2
Atom  62C    basis set group =>   2
Atom  63C    basis set group =>   2
Atom  64C    basis set group =>   2
Atom  65C    basis set group =>   2
Atom  66H    basis set group =>   5
Atom  67H    basis set group =>   5
Atom  68H    basis set group =>   5
Atom  69H    basis set group =>   5
Atom  70H    basis set group =>   5
Atom  71H    basis set group =>   5
Atom  72H    basis set group =>   5
Atom  73H    basis set group =>   5
Atom  74H    basis set group =>   5
Atom  75H    basis set group =>   5
Atom  76H    basis set group =>   5
Atom  77H    basis set group =>   5
Atom  78H    basis set group =>   5
Atom  79H    basis set group =>   5
Atom  80H    basis set group =>   5
Atom  81H    basis set group =>   5
Atom  82H    basis set group =>   5
Atom  83H    basis set group =>   5
Atom  84H    basis set group =>   5
Atom  85H    basis set group =>   5
Atom  86H    basis set group =>   5
Atom  87H    basis set group =>   5
Atom  88H    basis set group =>   5
Atom  89H    basis set group =>   5
Atom  90H    basis set group =>   5
Atom  91H    basis set group =>   5
Atom  92H    basis set group =>   5
Atom  93H    basis set group =>   5
Atom  94H    basis set group =>   5
Atom  95H    basis set group =>   5
Atom  96H    basis set group =>   5
Atom  97H    basis set group =>   5
Atom  98H    basis set group =>   5
Atom  99H    basis set group =>   5
Atom 100H    basis set group =>   5
Atom 101H    basis set group =>   5
Atom 102H    basis set group =>   5
Atom 103H    basis set group =>   5
Atom 104H    basis set group =>   5
Atom 105H    basis set group =>   5
Atom 106H    basis set group =>   5
Atom 107H    basis set group =>   5
Atom 108H    basis set group =>   5
Atom 109H    basis set group =>   5
Atom 110H    basis set group =>   5
Atom 111H    basis set group =>   5
Atom 112H    basis set group =>   5
Atom 113H    basis set group =>   5
Atom 114H    basis set group =>   5
Atom 115H    basis set group =>   5
Atom 116H    basis set group =>   5
Atom 117H    basis set group =>   5
Atom 118H    basis set group =>   5
Atom 119H    basis set group =>   5
Atom 120H    basis set group =>   5
Atom 121H    basis set group =>   5
Atom 122H    basis set group =>   5
Atom 123H    basis set group =>   5
Atom 124H    basis set group =>   5
Atom 125H    basis set group =>   5
Atom 126H    basis set group =>   5
Atom 127H    basis set group =>   5
Atom 128H    basis set group =>   5
Atom 129H    basis set group =>   5
Atom 130H    basis set group =>   5
Atom 131H    basis set group =>   5
Atom 132H    basis set group =>   5
Atom 133H    basis set group =>   5
Atom 134H    basis set group =>   5
Atom 135H    basis set group =>   5
Atom 136H    basis set group =>   5
Atom 137H    basis set group =>   5
Atom 138H    basis set group =>   5
Atom 139H    basis set group =>   5


           ************************************************************
           *        Program running with 4 parallel MPI-processes     *
           *              working on a common directory               *
           ************************************************************
------------------------------------------------------------------------------
                             ORCA STARTUP CALCULATIONS
                           -- RI-GTO INTEGRALS CHOSEN --
------------------------------------------------------------------------------
------------------------------------------------------------------------------
                   ___                                                        
                  /   \      - P O W E R E D   B Y -                         
                 /     \                                                     
                 |  |  |   _    _      __       _____    __    __             
                 |  |  |  | |  | |    /  \     |  _  \  |  |  /  |          
                  \  \/   | |  | |   /    \    | | | |  |  | /  /          
                 / \  \   | |__| |  /  /\  \   | |_| |  |  |/  /          
                |  |  |   |  __  | /  /__\  \  |    /   |      \           
                |  |  |   | |  | | |   __   |  |    \   |  |\   \          
                \     /   | |  | | |  |  |  |  | |\  \  |  | \   \       
                 \___/    |_|  |_| |__|  |__|  |_| \__\ |__|  \__/        
                                                                              
                      - O R C A' S   B I G   F R I E N D -                    
                                      &                                       
                       - I N T E G R A L  F E E D E R -                       
                                                                              
 v1 FN, 2020, v2 2021, v3 2022-2024                                           
------------------------------------------------------------------------------


----------------------
SHARK INTEGRAL PACKAGE
----------------------

Number of atoms                             ...    140
Number of basis functions                   ...   2491
Number of shells                            ...   1023
Maximum angular momentum                    ...      3
Integral batch strategy                     ... SHARK/LIBINT Hybrid
RI-J (if used) integral strategy            ... SPLIT-RIJ (Revised 2003 algorithm where possible)
Printlevel                                  ...      1
Contraction scheme used                     ... SEGMENTED contraction
Prescreening option                         ... SCHWARTZ
   Thresh                                   ... 2.500e-11
   Tcut                                     ... 2.500e-12
   Tpresel                                  ... 2.500e-12 
Coulomb Range Separation                    ... NOT USED
Exchange Range Separation                   ... NOT USED
Multipole approximations                    ... NOT USED
Finite Nucleus Model                        ... NOT USED
CABS basis                                  ... NOT available
Auxiliary Coulomb fitting basis             ... AVAILABLE
   # of basis functions in Aux-J            ...   4055
   # of shells in Aux-J                     ...   1363
   Maximum angular momentum in Aux-J        ...      4
Auxiliary J/K fitting basis                 ... NOT available
Auxiliary Correlation fitting basis         ... NOT available
Auxiliary 'external' fitting basis          ... NOT available

Checking pre-screening integrals            ... done (  0.0 sec) Dimension = 1023
   => SHARK Basis and OBASIS are compatible. Storing Pre-screening
Shell pair information
Shell pair cut-off parameter TPreSel        ...   2.5e-12
Total number of shell pairs                 ...    523776
Shell pairs after pre-screening             ...    164136
Total number of primitive shell pairs       ...   1567252
Primitive shell pairs kept                  ...    307296
          la=0 lb=0:  46449 shell pairs
          la=1 lb=0:  50218 shell pairs
          la=1 lb=1:  13669 shell pairs
          la=2 lb=0:  21579 shell pairs
          la=2 lb=1:  11988 shell pairs
          la=2 lb=2:   2659 shell pairs
          la=3 lb=0:   9541 shell pairs
          la=3 lb=1:   5353 shell pairs
          la=3 lb=2:   2192 shell pairs
          la=3 lb=3:    488 shell pairs

Checking whether 4 symmetric matrices of dimension 2491 fit in memory
:Max Core in MB      =   2200.00
 MB in use           =    194.75
 MB left             =   2005.25
 MB needed           =     94.72
 Data fit in memory  = YES
Calculating RI/J V-Matrix + Cholesky decomp.... done (  1.7 sec)
Calculating Nuclear repulsion               ... done (  0.0 sec) ENN=   9704.014104954542 Eh

Diagonalization of the overlap matrix:
Smallest eigenvalue                        ... 3.958e-06
Time for diagonalization                   ...    2.935 sec
Threshold for overlap eigenvalues          ... 1.000e-07
Number of eigenvalues below threshold      ... 0
Time for construction of square roots      ...    2.712 sec
Total time needed                          ...    5.721 sec

-------------------
DFT GRID GENERATION
-------------------

General Integration Accuracy     IntAcc      ... 4.959
Radial Grid Type                 RadialGrid  ... OptM3 with GC (2021)
Angular Grid (max. ang.)         AngularGrid ... 6 (Lebedev-590)
Angular grid pruning method      GridPruning ... 4 (adaptive)
Weight generation scheme         WeightScheme... mBecke (2022)
Basis function cutoff            BFCut       ... 1.0000e-11
Integration weight cutoff        WCut        ... 1.0000e-14
Partially contracted basis set               ... off
Rotationally invariant grid construction     ... off
Angular grids for H and He will be reduced by one unit

Total number of grid points                  ...  1550343
Total number of batches                      ...    24295
Average number of points per batch           ...       63
Average number of grid points per atom       ...    11074
Grids setup in  35.5 sec
Initializing property integral containers    ... done (  0.0 sec)

SHARK setup successfully completed in  47.0 seconds

Maximum memory used throughout the entire STARTUP-calculation: 552.1 MB


           ************************************************************
           *        Program running with 4 parallel MPI-processes     *
           *              working on a common directory               *
           ************************************************************
-------------------------------------------------------------------------------
                                 ORCA GUESS
                   Start orbitals & Density for SCF / CASSCF
-------------------------------------------------------------------------------

------------
SCF SETTINGS
------------
Hamiltonian:
 Density Functional     Method          .... DFT(GTOs)
 Exchange Functional    Exchange        .... TPSS
 Correlation Functional Correlation     .... TPSS
 LDA part of GGA corr.  LDAOpt          .... PW91-LDA
 Gradients option       PostSCFGGA      .... off
   NL short-range parameter             ....  5.000000
 RI-approximation to the Coulomb term is turned on
   Number of AuxJ basis functions       .... 4055


General Settings:
 Integral files         IntName         .... tddft
 Hartree-Fock type      HFTyp           .... RHF
 Total Charge           Charge          ....    0
 Multiplicity           Mult            ....    1
 Number of Electrons    NEL             ....  492
 Basis Dimension        Dim             .... 2491
 Nuclear Repulsion      ENuc            ....   9704.0141049545 Eh

Convergence Acceleration:
 AO-DIIS                CNVDIIS         .... on
   Start iteration      DIISMaxIt       ....    12
   Startup error        DIISStart       ....  0.200000
   # of expansion vecs  DIISMaxEq       ....     5
   Bias factor          DIISBfac        ....   1.050
   Max. coefficient     DIISMaxC        ....  10.000
 MO-DIIS                CNVKDIIS        .... off
 Trust-Rad. Augm. Hess. CNVTRAH         .... auto
   Auto Start mean grad. ratio tolernc. ....  1.125000
   Auto Start start iteration           ....    50
   Auto Start num. interpolation iter.  ....    10
   Max. Number of Micro iterations      ....    24
   Max. Number of Macro iterations      .... Maxiter - #DIIS iter
   Number of Davidson start vectors     ....     2
   Converg. threshold    (grad. norm)   ....   1.000e-05
   Grad. Scal. Fac. for Micro threshold ....   0.100
   Minimum threshold for Micro iter.    ....   1.000e-02
   NR start threshold (gradient norm)   ....   1.000e-04
   Initial trust radius                 ....   0.400
   Minimum AH scaling param. (alpha)    ....   1.000
   Maximum AH scaling param. (alpha)    .... 1000.000
   Quad. conv. algorithm                .... NR
   White noise on init. David. guess    .... on
   Maximum white noise                  ....   0.010
   Pseudo random numbers                .... off
   Inactive MOs                         .... canonical
   Orbital update algorithm             .... Taylor
   Preconditioner                       .... Diag
   Full preconditioner red. dimension   ....   250
 SOSCF                 CNVSOSCF           .... on
   Start iteration     SOSCFMaxIt         ....   150
   Startup grad/error  SOSCFStart         ....  0.003300
   Hessian update      SOSCFHessUp        .... L-BFGS
   Autom. constraints  SOSCFAutoConstrain .... off
 Level Shifting         CNVShift        .... on
   Level shift para.    LevelShift      ....    0.2500
   Turn off err/grad.   ShiftErr        ....    0.0010
 Zerner damping         CNVZerner       .... off
 Static damping         CNVDamp         .... on
   Fraction old density DampFac         ....    0.7000
   Max. Damping (<1)    DampMax         ....    0.9800
   Min. Damping (>=0)   DampMin         ....    0.0000
   Turn off err/grad.   DampErr         ....    0.1000

SCF Procedure:
 Maximum # iterations   MaxIter         ....   125
 SCF integral mode      SCFMode         .... Direct
   Integral package                     .... SHARK and LIBINT hybrid scheme
 Reset frequency        DirectResetFreq ....    20
 Integral Threshold     Thresh          ....  2.500e-11 Eh
 Primitive CutOff       TCut            ....  2.500e-12 Eh

Convergence Tolerance:
 Convergence Check Mode ConvCheckMode   .... Total+1el-Energy
 Convergence forced     ConvForced      .... 1
 Energy Change          TolE            ....  1.000e-08 Eh
 1-El. energy change                    ....  1.000e-05 Eh
 Orbital Gradient       TolG            ....  1.000e-05
 Orbital Rotation angle TolX            ....  1.000e-05
 DIIS Error             TolErr          ....  5.000e-07

------------------------------
INITIAL GUESS: MODEL POTENTIAL
------------------------------
Loading Hartree-Fock densities                     ... done
Calculating cut-offs                               ... done
Initializing the effective Hamiltonian             ... done
Setting up the integral package (SHARK)            ... done
Starting the Coulomb interaction                   ... done (  19.1 sec)
Making the grid                                    ... done (   3.3 sec)
Mapping shells                                     ... done
Starting the XC term evaluation                    ... done (   3.0 sec)
  promolecular density results
     # of electrons  =    491.948447275
     EX              =   -394.535206372
     EC              =    -16.547736374
     EX+EC           =   -411.082942746
Transforming the Hamiltonian                       ... done (   1.2 sec)
Diagonalizing the Hamiltonian                      ... done (   1.9 sec)
Back transforming the eigenvectors                 ... done (   0.8 sec)
Now organizing SCF variables                       ... done
                      ------------------
                      INITIAL GUESS DONE (  30.0 sec)
                      ------------------
             **** ENERGY FILE WAS UPDATED (tddft.en.tmp) ****
Finished Guess after  38.6 sec
Maximum memory used throughout the entire GUESS-calculation: 365.9 MB


           ************************************************************
           *        Program running with 4 parallel MPI-processes     *
           *              working on a common directory               *
           ************************************************************

-------------------------------------------------------------------------------------------
                                      ORCA LEAN-SCF
                              memory conserving SCF solver
-------------------------------------------------------------------------------------------

--------------------
CPCM SOLVATION MODEL
--------------------
CPCM parameters:
  Epsilon                                         ...       8.9990
  Refrac                                          ...       1.4242
  Rsolv                                           ...       1.3000
  Surface type                                    ... GAUSSIAN VDW
  Discretization scheme                           ... Constant charge density
    Threshold for H atoms                         ...       5.0000 (charges/Ang^2)
    Threshold for non-H atoms                     ...       5.0000 (charges/Ang^2)
  Epsilon function type                           ...         CPCM
Solvent:                                          ... DICHLOROMETHANE
Radii:
  Scheme                                          ... Element-dependent radii
  Radius for Mg used is    3.9231 Bohr (=   2.0760 Ang.)
  Radius for C  used is    3.8550 Bohr (=   2.0400 Ang.)
  Radius for N  used is    3.5149 Bohr (=   1.8600 Ang.)
  Radius for O  used is    3.4469 Bohr (=   1.8240 Ang.)
  Radius for H  used is    2.4944 Bohr (=   1.3200 Ang.)
Calculating surface                               ...        done! (  0.1s)
Cavity surface points                             ...        10985
Cavity Volume                                     ...    7536.7882
Cavity Surface-area                               ...    3697.7046
Calculating surface distance matrix               ...        done! (  2.4s)
Performing Cholesky decomposition & store         ...        done! (  8.5s)
Overall time for CPCM initialization              ...                11.0s

----------------------------------------D-I-I-S--------------------------------------------
Iteration    Energy (Eh)           Delta-E    RMSDP     MaxDP     DIISErr   Damp  Time(sec)
-------------------------------------------------------------------------------------------
               ***  Starting incremental Fock matrix formation  ***
    1    -3010.8683127809435973     0.00e+00  2.25e-03  3.56e-01  2.70e-01  0.700 117.5
Warning: op=0 Small HOMO/LUMO gap (   0.046) - skipping pre-diagonalization
         Will do a full diagonalization
    2    -3011.7094831036301912    -8.41e-01  1.98e-03  3.30e-01  8.85e-02  0.700 104.8
                               ***Turning on AO-DIIS***
    3    -3012.0173630456411047    -3.08e-01  6.86e-04  8.25e-02  3.06e-02  0.700  97.5
    4    -3012.1978898003781069    -1.81e-01  1.07e-03  8.60e-02  1.43e-02  0.000  93.3
    5    -3012.5995537213493662    -4.02e-01  5.68e-04  9.69e-02  9.05e-03  0.000 112.4
    6    -3012.6028667023874732    -3.31e-03  1.40e-04  1.68e-02  3.60e-03  0.000 102.9
                              *** Initializing SOSCF ***
---------------------------------------S-O-S-C-F--------------------------------------
Iteration    Energy (Eh)           Delta-E    RMSDP     MaxDP     MaxGrad    Time(sec)
--------------------------------------------------------------------------------------
    7    -3012.6031329368215665    -2.66e-04  6.21e-05  8.19e-03  3.26e-03    90.9
               *** Restarting incremental Fock matrix formation ***
    8    -3012.6031953181973222    -6.24e-05  4.03e-05  3.61e-03  1.67e-04   139.8
    9    -3012.6031920450786856     3.27e-06  1.78e-05  2.34e-03  4.84e-04    93.2
   10    -3012.6032075448911201    -1.55e-05  1.83e-05  3.04e-03  1.40e-04    76.5
   11    -3012.6032063479451608     1.20e-06  8.02e-06  1.48e-03  1.13e-04    83.1
   12    -3012.6032087989478896    -2.45e-06  8.29e-06  1.00e-03  1.35e-05    87.0
   13    -3012.6032087463427160     5.26e-08  4.75e-06  6.16e-04  2.23e-05    81.5
   14    -3012.6032088353422296    -8.90e-08  8.91e-06  1.32e-03  1.90e-06    79.1
                  *** Gradient check signals convergence ***

               *****************************************************
               *                     SUCCESS                       *
               *           SCF CONVERGED AFTER  14 CYCLES          *
               *****************************************************

             **** ENERGY FILE WAS UPDATED (tddft.en.tmp) ****

----------------
TOTAL SCF ENERGY
----------------

Total Energy       :      -3012.60320872483862 Eh          -81977.10094 eV

Components:
Nuclear Repulsion  :       9704.01410495454184 Eh          264059.64833 eV
Electronic Energy  :     -12716.57590456361140 Eh         -346035.62247 eV
One Electron Energy:     -23431.33964846726667 Eh         -637599.16675 eV
Two Electron Energy:      10714.76374390365527 Eh          291563.54428 eV
CPCM Dielectric    :         -0.04140911576916 Eh              -1.12680 eV

Virial components:
Potential Energy   :      -6012.70628475460217 Eh         -163614.05599 eV
Kinetic Energy     :       3000.10307602976400 Eh           81636.95504 eV
Virial Ratio       :          2.00416656774060

DFT components:
N(Alpha)           :      245.999983550255 electrons
N(Beta)            :      245.999983550255 electrons
N(Total)           :      491.999967100510 electrons
E(X)               :     -407.278260968132 Eh       
E(C)               :      -16.507974340034 Eh       
E(XC)              :     -423.786235308165 Eh       

CPCM Solvation Model Properties:
Surface-charge          :         -0.06901102521052
Corrected charge        :         -0.00000000000000
Outlying charge corr.   :          0.00012996446832 Eh               0.00354 eV
Free-energy (cav+disp)  :  This term is not implemented in the current solvation scheme

---------------
SCF CONVERGENCE
---------------

  Last Energy change         ...    8.9000e-08  Tolerance :   1.0000e-08
  Last MAX-Density change    ...    1.3210e-03  Tolerance :   1.0000e-07
  Last RMS-Density change    ...    8.9117e-06  Tolerance :   5.0000e-09
  Last DIIS Error            ...    3.2557e-03  Tolerance :   5.0000e-07
  Last Orbital Gradient      ...    1.9036e-06  Tolerance :   1.0000e-05
  Last Orbital Rotation      ...    1.0452e-05  Tolerance :   1.0000e-05


----------------
ORBITAL ENERGIES
----------------

  NO   OCC          E(Eh)            E(eV) 
   0   2.0000     -46.393506     -1262.4315 
   1   2.0000     -18.932034      -515.1668 
   2   2.0000     -18.924585      -514.9641 
   3   2.0000     -18.876076      -513.6441 
   4   2.0000     -18.875067      -513.6167 
   5   2.0000     -18.872040      -513.5343 
   6   2.0000     -18.864836      -513.3383 
   7   2.0000     -14.113603      -384.0507 
   8   2.0000     -14.109146      -383.9294 
   9   2.0000     -14.092103      -383.4656 
  10   2.0000     -14.090518      -383.4225 
  11   2.0000     -10.110378      -275.1174 
  12   2.0000     -10.104867      -274.9674 
  13   2.0000     -10.075574      -274.1703 
  14   2.0000     -10.067489      -273.9503 
  15   2.0000     -10.038202      -273.1534 
  16   2.0000     -10.034827      -273.0615 
  17   2.0000     -10.026166      -272.8259 
  18   2.0000     -10.025245      -272.8008 
  19   2.0000     -10.022695      -272.7314 
  20   2.0000     -10.022676      -272.7309 
  21   2.0000     -10.021732      -272.7052 
  22   2.0000     -10.019515      -272.6449 
  23   2.0000     -10.018871      -272.6273 
  24   2.0000     -10.015075      -272.5241 
  25   2.0000     -10.009668      -272.3769 
  26   2.0000     -10.003152      -272.1996 
  27   2.0000     -10.002273      -272.1757 
  28   2.0000      -9.998593      -272.0756 
  29   2.0000      -9.997284      -272.0399 
  30   2.0000      -9.996477      -272.0180 
  31   2.0000      -9.995444      -271.9899 
  32   2.0000      -9.992272      -271.9035 
  33   2.0000      -9.992045      -271.8974 
  34   2.0000      -9.991167      -271.8735 
  35   2.0000      -9.990139      -271.8455 
  36   2.0000      -9.989447      -271.8267 
  37   2.0000      -9.987905      -271.7847 
  38   2.0000      -9.986251      -271.7397 
  39   2.0000      -9.985892      -271.7299 
  40   2.0000      -9.983338      -271.6604 
  41   2.0000      -9.982934      -271.6494 
  42   2.0000      -9.981221      -271.6028 
  43   2.0000      -9.980488      -271.5829 
  44   2.0000      -9.980189      -271.5748 
  45   2.0000      -9.979139      -271.5462 
  46   2.0000      -9.978680      -271.5337 
  47   2.0000      -9.978521      -271.5294 
  48   2.0000      -9.978148      -271.5192 
  49   2.0000      -9.977845      -271.5110 
  50   2.0000      -9.976915      -271.4857 
  51   2.0000      -9.976723      -271.4804 
  52   2.0000      -9.975306      -271.4419 
  53   2.0000      -9.973255      -271.3861 
  54   2.0000      -9.971050      -271.3261 
  55   2.0000      -9.970737      -271.3175 
  56   2.0000      -9.969103      -271.2731 
  57   2.0000      -9.968818      -271.2653 
  58   2.0000      -9.968746      -271.2634 
  59   2.0000      -9.968539      -271.2577 
  60   2.0000      -9.968511      -271.2570 
  61   2.0000      -9.968383      -271.2535 
  62   2.0000      -9.965579      -271.1772 
  63   2.0000      -9.965570      -271.1769 
  64   2.0000      -9.965313      -271.1700 
  65   2.0000      -9.964600      -271.1505 
  66   2.0000      -2.926581       -79.6363 
  67   2.0000      -1.691645       -46.0320 
  68   2.0000      -1.685457       -45.8636 
  69   2.0000      -1.684321       -45.8327 
  70   2.0000      -1.041557       -28.3422 
  71   2.0000      -1.033324       -28.1182 
  72   2.0000      -0.978996       -26.6398 
  73   2.0000      -0.969218       -26.3738 
  74   2.0000      -0.957239       -26.0478 
  75   2.0000      -0.951144       -25.8819 
  76   2.0000      -0.904058       -24.6007 
  77   2.0000      -0.895085       -24.3565 
  78   2.0000      -0.894346       -24.3364 
  79   2.0000      -0.885403       -24.0930 
  80   2.0000      -0.789177       -21.4746 
  81   2.0000      -0.768618       -20.9151 
  82   2.0000      -0.760610       -20.6973 
  83   2.0000      -0.758506       -20.6400 
  84   2.0000      -0.753804       -20.5120 
  85   2.0000      -0.750913       -20.4334 
  86   2.0000      -0.747101       -20.3296 
  87   2.0000      -0.742468       -20.2036 
  88   2.0000      -0.739858       -20.1326 
  89   2.0000      -0.739570       -20.1247 
  90   2.0000      -0.734631       -19.9903 
  91   2.0000      -0.722589       -19.6627 
  92   2.0000      -0.711269       -19.3546 
  93   2.0000      -0.706050       -19.2126 
  94   2.0000      -0.700497       -19.0615 
  95   2.0000      -0.692744       -18.8505 
  96   2.0000      -0.686769       -18.6879 
  97   2.0000      -0.684450       -18.6248 
  98   2.0000      -0.677906       -18.4468 
  99   2.0000      -0.673923       -18.3384 
 100   2.0000      -0.664429       -18.0800 
 101   2.0000      -0.656225       -17.8568 
 102   2.0000      -0.649844       -17.6832 
 103   2.0000      -0.644016       -17.5246 
 104   2.0000      -0.635174       -17.2840 
 105   2.0000      -0.629464       -17.1286 
 106   2.0000      -0.625074       -17.0091 
 107   2.0000      -0.622672       -16.9438 
 108   2.0000      -0.620288       -16.8789 
 109   2.0000      -0.614575       -16.7234 
 110   2.0000      -0.607208       -16.5230 
 111   2.0000      -0.602310       -16.3897 
 112   2.0000      -0.592264       -16.1163 
 113   2.0000      -0.581802       -15.8316 
 114   2.0000      -0.570034       -15.5114 
 115   2.0000      -0.566583       -15.4175 
 116   2.0000      -0.563711       -15.3394 
 117   2.0000      -0.552197       -15.0261 
 118   2.0000      -0.542540       -14.7633 
 119   2.0000      -0.531332       -14.4583 
 120   2.0000      -0.528900       -14.3921 
 121   2.0000      -0.525636       -14.3033 
 122   2.0000      -0.522054       -14.2058 
 123   2.0000      -0.520797       -14.1716 
 124   2.0000      -0.513122       -13.9628 
 125   2.0000      -0.510014       -13.8782 
 126   2.0000      -0.505778       -13.7629 
 127   2.0000      -0.505376       -13.7520 
 128   2.0000      -0.498075       -13.5533 
 129   2.0000      -0.484989       -13.1972 
 130   2.0000      -0.479566       -13.0497 
 131   2.0000      -0.474851       -12.9214 
 132   2.0000      -0.473616       -12.8877 
 133   2.0000      -0.468300       -12.7431 
 134   2.0000      -0.466654       -12.6983 
 135   2.0000      -0.460907       -12.5419 
 136   2.0000      -0.458758       -12.4835 
 137   2.0000      -0.446980       -12.1630 
 138   2.0000      -0.442274       -12.0349 
 139   2.0000      -0.440678       -11.9915 
 140   2.0000      -0.438280       -11.9262 
 141   2.0000      -0.435237       -11.8434 
 142   2.0000      -0.433603       -11.7989 
 143   2.0000      -0.432389       -11.7659 
 144   2.0000      -0.431136       -11.7318 
 145   2.0000      -0.430333       -11.7100 
 146   2.0000      -0.427275       -11.6267 
 147   2.0000      -0.423004       -11.5105 
 148   2.0000      -0.420168       -11.4333 
 149   2.0000      -0.413143       -11.2422 
 150   2.0000      -0.411986       -11.2107 
 151   2.0000      -0.409754       -11.1500 
 152   2.0000      -0.406197       -11.0532 
 153   2.0000      -0.405888       -11.0448 
 154   2.0000      -0.404213       -10.9992 
 155   2.0000      -0.402568       -10.9544 
 156   2.0000      -0.401257       -10.9188 
 157   2.0000      -0.396980       -10.8024 
 158   2.0000      -0.395269       -10.7558 
 159   2.0000      -0.394137       -10.7250 
 160   2.0000      -0.390970       -10.6388 
 161   2.0000      -0.388897       -10.5824 
 162   2.0000      -0.387938       -10.5563 
 163   2.0000      -0.386185       -10.5086 
 164   2.0000      -0.385677       -10.4948 
 165   2.0000      -0.381767       -10.3884 
 166   2.0000      -0.380781       -10.3616 
 167   2.0000      -0.380438       -10.3523 
 168   2.0000      -0.378227       -10.2921 
 169   2.0000      -0.374303       -10.1853 
 170   2.0000      -0.373652       -10.1676 
 171   2.0000      -0.372374       -10.1328 
 172   2.0000      -0.371955       -10.1214 
 173   2.0000      -0.369138       -10.0448 
 174   2.0000      -0.367963       -10.0128 
 175   2.0000      -0.364152        -9.9091 
 176   2.0000      -0.363780        -9.8990 
 177   2.0000      -0.359973        -9.7954 
 178   2.0000      -0.356465        -9.6999 
 179   2.0000      -0.354215        -9.6387 
 180   2.0000      -0.353157        -9.6099 
 181   2.0000      -0.352683        -9.5970 
 182   2.0000      -0.350105        -9.5268 
 183   2.0000      -0.348090        -9.4720 
 184   2.0000      -0.347970        -9.4687 
 185   2.0000      -0.346579        -9.4309 
 186   2.0000      -0.344981        -9.3874 
 187   2.0000      -0.342651        -9.3240 
 188   2.0000      -0.340215        -9.2577 
 189   2.0000      -0.339552        -9.2397 
 190   2.0000      -0.339278        -9.2322 
 191   2.0000      -0.336990        -9.1700 
 192   2.0000      -0.335957        -9.1419 
 193   2.0000      -0.334723        -9.1083 
 194   2.0000      -0.332880        -9.0581 
 195   2.0000      -0.332387        -9.0447 
 196   2.0000      -0.331273        -9.0144 
 197   2.0000      -0.327637        -8.9155 
 198   2.0000      -0.326342        -8.8802 
 199   2.0000      -0.324414        -8.8278 
 200   2.0000      -0.323208        -8.7949 
 201   2.0000      -0.321211        -8.7406 
 202   2.0000      -0.319163        -8.6849 
 203   2.0000      -0.318720        -8.6728 
 204   2.0000      -0.317836        -8.6487 
 205   2.0000      -0.315900        -8.5961 
 206   2.0000      -0.315501        -8.5852 
 207   2.0000      -0.312201        -8.4954 
 208   2.0000      -0.311597        -8.4790 
 209   2.0000      -0.305393        -8.3102 
 210   2.0000      -0.304073        -8.2743 
 211   2.0000      -0.303370        -8.2551 
 212   2.0000      -0.302926        -8.2430 
 213   2.0000      -0.301090        -8.1931 
 214   2.0000      -0.299243        -8.1428 
 215   2.0000      -0.294504        -8.0139 
 216   2.0000      -0.294349        -8.0096 
 217   2.0000      -0.291837        -7.9413 
 218   2.0000      -0.289837        -7.8869 
 219   2.0000      -0.283720        -7.7204 
 220   2.0000      -0.283618        -7.7176 
 221   2.0000      -0.282554        -7.6887 
 222   2.0000      -0.278603        -7.5812 
 223   2.0000      -0.277033        -7.5384 
 224   2.0000      -0.275742        -7.5033 
 225   2.0000      -0.275602        -7.4995 
 226   2.0000      -0.274805        -7.4778 
 227   2.0000      -0.272832        -7.4241 
 228   2.0000      -0.272462        -7.4141 
 229   2.0000      -0.272322        -7.4103 
 230   2.0000      -0.267697        -7.2844 
 231   2.0000      -0.263752        -7.1771 
 232   2.0000      -0.262600        -7.1457 
 233   2.0000      -0.251662        -6.8481 
 234   2.0000      -0.246628        -6.7111 
 235   2.0000      -0.245442        -6.6788 
 236   2.0000      -0.244391        -6.6502 
 237   2.0000      -0.241196        -6.5633 
 238   2.0000      -0.233563        -6.3556 
 239   2.0000      -0.224857        -6.1187 
 240   2.0000      -0.219156        -5.9635 
 241   2.0000      -0.216647        -5.8953 
 242   2.0000      -0.216479        -5.8907 
 243   2.0000      -0.209577        -5.7029 
 244   2.0000      -0.182526        -4.9668 
 245   2.0000      -0.165492        -4.5033 
 246   0.0000      -0.122135        -3.3235 
 247   0.0000      -0.072910        -1.9840 
 248   0.0000      -0.067375        -1.8334 
 249   0.0000      -0.053483        -1.4553 
 250   0.0000      -0.031015        -0.8440 
 251   0.0000      -0.028050        -0.7633 
 252   0.0000      -0.022305        -0.6069 
 253   0.0000      -0.013221        -0.3598 
 254   0.0000      -0.001397        -0.0380 
 255   0.0000       0.002808         0.0764 
 256   0.0000       0.016557         0.4505 
*Only the first 10 virtual orbitals were printed.

                    ********************************
                    * MULLIKEN POPULATION ANALYSIS *
                    ********************************

-----------------------
MULLIKEN ATOMIC CHARGES
-----------------------
   0 Mg:    0.759742
   1 C :   -0.261686
   2 C :   -0.549926
   3 C :   -0.511192
   4 C :   -0.507370
   5 N :   -0.428939
   6 C :    0.184686
   7 C :    0.181855
   8 C :    0.058906
   9 C :    0.216247
  10 C :   -0.415369
  11 C :   -0.272121
  12 C :   -0.185501
  13 C :    0.278007
  14 O :   -0.377068
  15 O :   -0.238929
  16 N :   -0.387448
  17 C :    0.373596
  18 C :   -0.034102
  19 C :   -0.070814
  20 C :    0.296286
  21 C :   -0.364826
  22 C :    0.176231
  23 O :   -0.377902
  24 C :   -0.333105
  25 N :   -0.369564
  26 C :    0.278382
  27 C :    0.037091
  28 C :    0.113207
  29 C :    0.191045
  30 C :   -0.414691
  31 C :   -0.172950
  32 C :   -0.401967
  33 N :   -0.424260
  34 C :    0.330007
  35 C :   -0.149736
  36 C :    0.054442
  37 C :    0.294259
  38 C :   -0.415247
  39 C :    0.032609
  40 O :   -0.324650
  41 C :    0.133628
  42 C :    0.243775
  43 O :   -0.368604
  44 O :   -0.234140
  45 C :   -0.245417
  46 C :   -0.023000
  47 C :   -0.239868
  48 C :    0.046083
  49 C :   -0.369586
  50 C :   -0.116158
  51 C :   -0.272623
  52 C :   -0.156415
  53 C :    0.069874
  54 C :   -0.416235
  55 C :   -0.159179
  56 C :   -0.231695
  57 C :   -0.158934
  58 C :    0.074283
  59 C :   -0.416566
  60 C :   -0.160817
  61 C :   -0.230305
  62 C :   -0.176711
  63 C :    0.056940
  64 C :   -0.397821
  65 C :   -0.361678
  66 H :    0.113216
  67 H :    0.141074
  68 H :    0.133395
  69 H :    0.083523
  70 H :    0.086806
  71 H :    0.128075
  72 H :    0.128977
  73 H :    0.126520
  74 H :    0.108725
  75 H :    0.125188
  76 H :    0.129949
  77 H :    0.130052
  78 H :    0.143315
  79 H :    0.146918
  80 H :    0.145304
  81 H :    0.132006
  82 H :    0.136686
  83 H :    0.138942
  84 H :    0.087606
  85 H :    0.068691
  86 H :    0.125731
  87 H :    0.124690
  88 H :    0.129065
  89 H :    0.098008
  90 H :    0.098942
  91 H :    0.127685
  92 H :    0.126874
  93 H :    0.125581
  94 H :    0.144341
  95 H :    0.142034
  96 H :    0.141412
  97 H :    0.100737
  98 H :    0.154245
  99 H :    0.145278
 100 H :    0.147121
 101 H :    0.121697
 102 H :    0.146810
 103 H :    0.118730
 104 H :    0.127920
 105 H :    0.127455
 106 H :    0.139502
 107 H :    0.100797
 108 H :    0.093585
 109 H :    0.111902
 110 H :    0.089085
 111 H :    0.086152
 112 H :    0.079326
 113 H :    0.038758
 114 H :    0.126860
 115 H :    0.104997
 116 H :    0.125370
 117 H :    0.083680
 118 H :    0.077318
 119 H :    0.101753
 120 H :    0.076181
 121 H :    0.083069
 122 H :    0.076717
 123 H :    0.036891
 124 H :    0.126129
 125 H :    0.104264
 126 H :    0.125694
 127 H :    0.083246
 128 H :    0.076964
 129 H :    0.104141
 130 H :    0.075668
 131 H :    0.085726
 132 H :    0.078833
 133 H :    0.049534
 134 H :    0.117694
 135 H :    0.105985
 136 H :    0.127165
 137 H :    0.119035
 138 H :    0.116767
 139 H :    0.105821
Sum of atomic charges:   -0.0000000

--------------------------------
MULLIKEN REDUCED ORBITAL CHARGES
--------------------------------
  0 Mgs       :     4.541118  s :     4.541118
      pz      :     2.083381  p :     6.440156
      px      :     2.192932
      py      :     2.163843
      dz2     :     0.027125  d :     0.258984
      dxz     :     0.040611
      dyz     :     0.019767
      dx2y2   :     0.068043
      dxy     :     0.103438

  1 C s       :     3.448667  s :     3.448667
      pz      :     0.974428  p :     2.680261
      px      :     0.926024
      py      :     0.779808
      dz2     :     0.011936  d :     0.122278
      dxz     :     0.019372
      dyz     :     0.021105
      dx2y2   :     0.041253
      dxy     :     0.028612
      f0      :     0.001051  f :     0.010481
      f+1     :     0.001014
      f-1     :     0.001359
      f+2     :     0.001394
      f-2     :     0.000955
      f+3     :     0.002071
      f-3     :     0.002638

  2 C s       :     3.409782  s :     3.409782
      pz      :     1.035453  p :     3.053520
      px      :     1.041614
      py      :     0.976454
      dz2     :     0.004572  d :     0.078867
      dxz     :     0.024204
      dyz     :     0.007846
      dx2y2   :     0.022393
      dxy     :     0.019851
      f0      :     0.001209  f :     0.007757
      f+1     :     0.000711
      f-1     :     0.000586
      f+2     :     0.001150
      f-2     :     0.000785
      f+3     :     0.001438
      f-3     :     0.001878

  3 C s       :     3.403931  s :     3.403931
      pz      :     1.037719  p :     3.020639
      px      :     1.021711
      py      :     0.961209
      dz2     :     0.009365  d :     0.078913
      dxz     :     0.006994
      dyz     :     0.017230
      dx2y2   :     0.025257
      dxy     :     0.020067
      f0      :     0.000743  f :     0.007710
      f+1     :     0.000767
      f-1     :     0.001353
      f+2     :     0.000768
      f-2     :     0.000898
      f+3     :     0.001753
      f-3     :     0.001427

  4 C s       :     3.426221  s :     3.426221
      pz      :     1.043856  p :     2.992425
      px      :     0.972216
      py      :     0.976352
      dz2     :     0.003644  d :     0.080950
      dxz     :     0.023533
      dyz     :     0.008451
      dx2y2   :     0.024709
      dxy     :     0.020613
      f0      :     0.001249  f :     0.007775
      f+1     :     0.000691
      f-1     :     0.000624
      f+2     :     0.001087
      f-2     :     0.000810
      f+3     :     0.001412
      f-3     :     0.001902

  5 N s       :     3.724222  s :     3.724222
      pz      :     1.261874  p :     3.640202
      px      :     1.087627
      py      :     1.290702
      dz2     :     0.006555  d :     0.060793
      dxz     :     0.014229
      dyz     :     0.006662
      dx2y2   :     0.016145
      dxy     :     0.017202
      f0      :     0.000445  f :     0.003720
      f+1     :     0.000371
      f-1     :     0.000463
      f+2     :     0.000537
      f-2     :     0.000344
      f+3     :     0.000676
      f-3     :     0.000883

  6 C s       :     3.195562  s :     3.195562
      pz      :     0.885241  p :     2.443209
      px      :     0.745345
      py      :     0.812623
      dz2     :     0.010675  d :     0.162269
      dxz     :     0.037536
      dyz     :     0.022642
      dx2y2   :     0.043711
      dxy     :     0.047706
      f0      :     0.001482  f :     0.014276
      f+1     :     0.001236
      f-1     :     0.001268
      f+2     :     0.002279
      f-2     :     0.001039
      f+3     :     0.003026
      f-3     :     0.003946

  7 C s       :     2.974286  s :     2.974286
      pz      :     0.923297  p :     2.706426
      px      :     0.902036
      py      :     0.881093
      dz2     :     0.021560  d :     0.128736
      dxz     :     0.031290
      dyz     :     0.021192
      dx2y2   :     0.033043
      dxy     :     0.021652
      f0      :     0.000925  f :     0.008697
      f+1     :     0.001296
      f-1     :     0.001149
      f+2     :     0.001767
      f-2     :     0.000985
      f+3     :     0.001512
      f-3     :     0.001063

  8 C s       :     3.019064  s :     3.019064
      pz      :     0.952127  p :     2.780588
      px      :     0.903586
      py      :     0.924874
      dz2     :     0.025015  d :     0.132574
      dxz     :     0.035434
      dyz     :     0.028179
      dx2y2   :     0.022006
      dxy     :     0.021939
      f0      :     0.001445  f :     0.008869
      f+1     :     0.001816
      f-1     :     0.001385
      f+2     :     0.000805
      f-2     :     0.000932
      f+3     :     0.001325
      f-3     :     0.001161

  9 C s       :     3.121544  s :     3.121544
      pz      :     0.853133  p :     2.488158
      px      :     0.841420
      py      :     0.793604
      dz2     :     0.015517  d :     0.159677
      dxz     :     0.037787
      dyz     :     0.019184
      dx2y2   :     0.042275
      dxy     :     0.044914
      f0      :     0.001321  f :     0.014374
      f+1     :     0.001199
      f-1     :     0.001694
      f+2     :     0.001902
      f-2     :     0.001652
      f+3     :     0.002172
      f-3     :     0.004434

 10 C s       :     3.262563  s :     3.262563
      pz      :     0.932929  p :     3.083143
      px      :     1.074819
      py      :     1.075394
      dz2     :     0.009257  d :     0.065022
      dxz     :     0.019599
      dyz     :     0.020823
      dx2y2   :     0.007056
      dxy     :     0.008287
      f0      :     0.001242  f :     0.004642
      f+1     :     0.000903
      f-1     :     0.000990
      f+2     :     0.000274
      f-2     :     0.000253
      f+3     :     0.000550
      f-3     :     0.000430

 11 C s       :     3.175599  s :     3.175599
      pz      :     0.931707  p :     2.990044
      px      :     1.031868
      py      :     1.026470
      dz2     :     0.026255  d :     0.099884
      dxz     :     0.021683
      dyz     :     0.019349
      dx2y2   :     0.021590
      dxy     :     0.011008
      f0      :     0.001197  f :     0.006593
      f+1     :     0.001035
      f-1     :     0.000787
      f+2     :     0.001367
      f-2     :     0.001160
      f+3     :     0.000294
      f-3     :     0.000753

 12 C s       :     3.098332  s :     3.098332
      pz      :     0.944699  p :     2.990627
      px      :     1.012204
      py      :     1.033724
      dz2     :     0.024555  d :     0.090175
      dxz     :     0.013448
      dyz     :     0.022940
      dx2y2   :     0.017537
      dxy     :     0.011694
      f0      :     0.001010  f :     0.006366
      f+1     :     0.001169
      f-1     :     0.000770
      f+2     :     0.001195
      f-2     :     0.001100
      f+3     :     0.000292
      f-3     :     0.000831

 13 C s       :     3.103853  s :     3.103853
      pz      :     0.817336  p :     2.324762
      px      :     0.722765
      py      :     0.784661
      dz2     :     0.044242  d :     0.268888
      dxz     :     0.089011
      dyz     :     0.018486
      dx2y2   :     0.046448
      dxy     :     0.070700
      f0      :     0.002925  f :     0.024490
      f+1     :     0.005168
      f-1     :     0.001276
      f+2     :     0.004680
      f-2     :     0.002866
      f+3     :     0.003533
      f-3     :     0.004044

 14 O s       :     3.814668  s :     3.814668
      pz      :     1.658251  p :     4.531812
      px      :     1.359461
      py      :     1.514100
      dz2     :     0.003137  d :     0.028669
      dxz     :     0.008552
      dyz     :     0.000613
      dx2y2   :     0.007101
      dxy     :     0.009266
      f0      :     0.000225  f :     0.001919
      f+1     :     0.000328
      f-1     :     0.000042
      f+2     :     0.000342
      f-2     :     0.000076
      f+3     :     0.000361
      f-3     :     0.000544

 15 O s       :     3.772546  s :     3.772546
      pz      :     1.337572  p :     4.426597
      px      :     1.533160
      py      :     1.555865
      dz2     :     0.007269  d :     0.037797
      dxz     :     0.011708
      dyz     :     0.005895
      dx2y2   :     0.006075
      dxy     :     0.006850
      f0      :     0.000255  f :     0.001988
      f+1     :     0.000327
      f-1     :     0.000382
      f+2     :     0.000349
      f-2     :     0.000364
      f+3     :     0.000163
      f-3     :     0.000148

 16 N s       :     3.664130  s :     3.664130
      pz      :     1.325529  p :     3.661058
      px      :     1.214209
      py      :     1.121319
      dz2     :     0.006817  d :     0.058516
      dxz     :     0.008467
      dyz     :     0.010848
      dx2y2   :     0.016389
      dxy     :     0.015996
      f0      :     0.000484  f :     0.003743
      f+1     :     0.000293
      f-1     :     0.000604
      f+2     :     0.000471
      f-2     :     0.000441
      f+3     :     0.000845
      f-3     :     0.000605

 17 C s       :     3.077955  s :     3.077955
      pz      :     0.905142  p :     2.361881
      px      :     0.771160
      py      :     0.685579
      dz2     :     0.016123  d :     0.171844
      dxz     :     0.031263
      dyz     :     0.028059
      dx2y2   :     0.043804
      dxy     :     0.052595
      f0      :     0.001395  f :     0.014724
      f+1     :     0.000765
      f-1     :     0.002098
      f+2     :     0.002231
      f-2     :     0.001481
      f+3     :     0.003680
      f-3     :     0.003074

 18 C s       :     3.231296  s :     3.231296
      pz      :     0.914776  p :     2.643821
      px      :     0.884073
      py      :     0.844973
      dz2     :     0.013381  d :     0.148599
      dxz     :     0.025715
      dyz     :     0.022899
      dx2y2   :     0.043063
      dxy     :     0.043540
      f0      :     0.001061  f :     0.010387
      f+1     :     0.000740
      f-1     :     0.001400
      f+2     :     0.001447
      f-2     :     0.001070
      f+3     :     0.001525
      f-3     :     0.003144

 19 C s       :     3.277329  s :     3.277329
      pz      :     1.023098  p :     2.656388
      px      :     0.749832
      py      :     0.883458
      dz2     :     0.012348  d :     0.126672
      dxz     :     0.018163
      dyz     :     0.019944
      dx2y2   :     0.042790
      dxy     :     0.033427
      f0      :     0.001172  f :     0.010424
      f+1     :     0.001119
      f-1     :     0.001112
      f+2     :     0.000995
      f-2     :     0.001283
      f+3     :     0.002023
      f-3     :     0.002720

 20 C s       :     3.133162  s :     3.133162
      pz      :     0.896969  p :     2.380034
      px      :     0.702132
      py      :     0.780933
      dz2     :     0.014184  d :     0.175717
      dxz     :     0.035589
      dyz     :     0.026631
      dx2y2   :     0.051527
      dxy     :     0.047786
      f0      :     0.001389  f :     0.014800
      f+1     :     0.001236
      f-1     :     0.001611
      f+2     :     0.001291
      f-2     :     0.002251
      f+3     :     0.004679
      f-3     :     0.002344

 21 C s       :     3.261934  s :     3.261934
      pz      :     1.051329  p :     3.037311
      px      :     1.050005
      py      :     0.935978
      dz2     :     0.011984  d :     0.061132
      dxz     :     0.011659
      dyz     :     0.010256
      dx2y2   :     0.010553
      dxy     :     0.016681
      f0      :     0.000510  f :     0.004449
      f+1     :     0.000785
      f-1     :     0.000530
      f+2     :     0.000467
      f-2     :     0.000559
      f+3     :     0.000663
      f-3     :     0.000933

 22 C s       :     3.177073  s :     3.177073
      pz      :     0.763430  p :     2.420612
      px      :     0.883883
      py      :     0.773299
      dz2     :     0.032684  d :     0.208533
      dxz     :     0.043536
      dyz     :     0.025809
      dx2y2   :     0.047003
      dxy     :     0.059500
      f0      :     0.001283  f :     0.017552
      f+1     :     0.001217
      f-1     :     0.003007
      f+2     :     0.003193
      f-2     :     0.002387
      f+3     :     0.002825
      f-3     :     0.003639

 23 O s       :     3.826927  s :     3.826927
      pz      :     1.404850  p :     4.520710
      px      :     1.753807
      py      :     1.362053
      dz2     :     0.005946  d :     0.028470
      dxz     :     0.003714
      dyz     :     0.006442
      dx2y2   :     0.006365
      dxy     :     0.006003
      f0      :     0.000102  f :     0.001795
      f+1     :     0.000140
      f-1     :     0.000382
      f+2     :     0.000277
      f-2     :     0.000306
      f+3     :     0.000264
      f-3     :     0.000325

 24 C s       :     3.189225  s :     3.189225
      pz      :     1.028547  p :     3.086691
      px      :     1.026413
      py      :     1.031730
      dz2     :     0.012801  d :     0.052798
      dxz     :     0.007422
      dyz     :     0.009094
      dx2y2   :     0.013065
      dxy     :     0.010415
      f0      :     0.000596  f :     0.004392
      f+1     :     0.000754
      f-1     :     0.000449
      f+2     :     0.000714
      f-2     :     0.000493
      f+3     :     0.000344
      f-3     :     0.001043

 25 N s       :     3.687223  s :     3.687223
      pz      :     1.256267  p :     3.618527
      px      :     1.098573
      py      :     1.263686
      dz2     :     0.005968  d :     0.060108
      dxz     :     0.013769
      dyz     :     0.006644
      dx2y2   :     0.016419
      dxy     :     0.017307
      f0      :     0.000466  f :     0.003706
      f+1     :     0.000346
      f-1     :     0.000447
      f+2     :     0.000532
      f-2     :     0.000326
      f+3     :     0.000668
      f-3     :     0.000921

 26 C s       :     3.107815  s :     3.107815
      pz      :     0.893590  p :     2.438179
      px      :     0.695035
      py      :     0.849553
      dz2     :     0.010433  d :     0.161279
      dxz     :     0.038489
      dyz     :     0.020456
      dx2y2   :     0.044025
      dxy     :     0.047875
      f0      :     0.001507  f :     0.014346
      f+1     :     0.001217
      f-1     :     0.001096
      f+2     :     0.002254
      f-2     :     0.001018
      f+3     :     0.003109
      f-3     :     0.004143

 27 C s       :     3.036340  s :     3.036340
      pz      :     0.939493  p :     2.785312
      px      :     0.944816
      py      :     0.901002
      dz2     :     0.023081  d :     0.132382
      dxz     :     0.034939
      dyz     :     0.021482
      dx2y2   :     0.031217
      dxy     :     0.021662
      f0      :     0.001015  f :     0.008876
      f+1     :     0.001340
      f-1     :     0.001096
      f+2     :     0.001730
      f-2     :     0.001030
      f+3     :     0.001582
      f-3     :     0.001082

 28 C s       :     2.992771  s :     2.992771
      pz      :     0.953741  p :     2.755507
      px      :     0.900505
      py      :     0.901261
      dz2     :     0.022991  d :     0.129788
      dxz     :     0.034884
      dyz     :     0.027639
      dx2y2   :     0.021881
      dxy     :     0.022393
      f0      :     0.001496  f :     0.008727
      f+1     :     0.001665
      f-1     :     0.001257
      f+2     :     0.000838
      f-2     :     0.000967
      f+3     :     0.001331
      f-3     :     0.001171

 29 C s       :     3.154930  s :     3.154930
      pz      :     0.881747  p :     2.479029
      px      :     0.800441
      py      :     0.796841
      dz2     :     0.014833  d :     0.160643
      dxz     :     0.037842
      dyz     :     0.020316
      dx2y2   :     0.042716
      dxy     :     0.044937
      f0      :     0.001409  f :     0.014353
      f+1     :     0.001124
      f-1     :     0.001665
      f+2     :     0.001842
      f-2     :     0.001652
      f+3     :     0.002203
      f-3     :     0.004459

 30 C s       :     3.263773  s :     3.263773
      pz      :     0.984566  p :     3.080962
      px      :     1.066681
      py      :     1.029715
      dz2     :     0.014349  d :     0.065304
      dxz     :     0.021156
      dyz     :     0.007865
      dx2y2   :     0.014576
      dxy     :     0.007358
      f0      :     0.000745  f :     0.004652
      f+1     :     0.000649
      f-1     :     0.000542
      f+2     :     0.001175
      f-2     :     0.000689
      f+3     :     0.000246
      f-3     :     0.000607

 31 C s       :     3.146946  s :     3.146946
      pz      :     0.909122  p :     2.915104
      px      :     1.015208
      py      :     0.990775
      dz2     :     0.026956  d :     0.104340
      dxz     :     0.017252
      dyz     :     0.026085
      dx2y2   :     0.009450
      dxy     :     0.024597
      f0      :     0.001206  f :     0.006559
      f+1     :     0.000946
      f-1     :     0.001768
      f+2     :     0.000453
      f-2     :     0.000598
      f+3     :     0.000689
      f-3     :     0.000900

 32 C s       :     3.247440  s :     3.247440
      pz      :     1.047769  p :     3.086096
      px      :     1.062065
      py      :     0.976262
      dz2     :     0.023711  d :     0.063901
      dxz     :     0.002704
      dyz     :     0.007258
      dx2y2   :     0.007571
      dxy     :     0.022656
      f0      :     0.000947  f :     0.004530
      f+1     :     0.000176
      f-1     :     0.000957
      f+2     :     0.000384
      f-2     :     0.000514
      f+3     :     0.000650
      f-3     :     0.000903

 33 N s       :     3.707627  s :     3.707627
      pz      :     1.328683  p :     3.654656
      px      :     1.214523
      py      :     1.111450
      dz2     :     0.006535  d :     0.058245
      dxz     :     0.008302
      dyz     :     0.011041
      dx2y2   :     0.016679
      dxy     :     0.015688
      f0      :     0.000506  f :     0.003733
      f+1     :     0.000292
      f-1     :     0.000566
      f+2     :     0.000416
      f-2     :     0.000484
      f+3     :     0.000879
      f-3     :     0.000591

 34 C s       :     3.086339  s :     3.086339
      pz      :     0.910826  p :     2.400190
      px      :     0.768535
      py      :     0.720830
      dz2     :     0.014643  d :     0.168936
      dxz     :     0.030712
      dyz     :     0.027845
      dx2y2   :     0.043360
      dxy     :     0.052377
      f0      :     0.001448  f :     0.014528
      f+1     :     0.000823
      f-1     :     0.001954
      f+2     :     0.002127
      f-2     :     0.001468
      f+3     :     0.003251
      f-3     :     0.003456

 35 C s       :     3.386882  s :     3.386882
      pz      :     0.934415  p :     2.614119
      px      :     0.854147
      py      :     0.825556
      dz2     :     0.012038  d :     0.138531
      dxz     :     0.021755
      dyz     :     0.024874
      dx2y2   :     0.045079
      dxy     :     0.034785
      f0      :     0.001104  f :     0.010204
      f+1     :     0.000665
      f-1     :     0.001389
      f+2     :     0.001543
      f-2     :     0.000937
      f+3     :     0.001486
      f-3     :     0.003081

 36 C s       :     3.214546  s :     3.214546
      pz      :     1.011515  p :     2.586350
      px      :     0.763266
      py      :     0.811570
      dz2     :     0.013111  d :     0.133377
      dxz     :     0.017346
      dyz     :     0.022933
      dx2y2   :     0.037218
      dxy     :     0.042769
      f0      :     0.001261  f :     0.011284
      f+1     :     0.001002
      f-1     :     0.001396
      f+2     :     0.000812
      f-2     :     0.001657
      f+3     :     0.002923
      f-3     :     0.002234

 37 C s       :     3.204438  s :     3.204438
      pz      :     0.895613  p :     2.305842
      px      :     0.621166
      py      :     0.789063
      dz2     :     0.013493  d :     0.179240
      dxz     :     0.041590
      dyz     :     0.026623
      dx2y2   :     0.053576
      dxy     :     0.043958
      f0      :     0.001619  f :     0.016221
      f+1     :     0.001301
      f-1     :     0.001581
      f+2     :     0.001150
      f-2     :     0.002576
      f+3     :     0.005326
      f-3     :     0.002667

 38 C s       :     3.311880  s :     3.311880
      pz      :     1.042360  p :     3.037752
      px      :     1.033078
      py      :     0.962313
      dz2     :     0.010366  d :     0.061080
      dxz     :     0.005193
      dyz     :     0.018631
      dx2y2   :     0.019578
      dxy     :     0.007311
      f0      :     0.000412  f :     0.004535
      f+1     :     0.000617
      f-1     :     0.000827
      f+2     :     0.000576
      f-2     :     0.000478
      f+3     :     0.000706
      f-3     :     0.000919

 39 C s       :     3.176499  s :     3.176499
      pz      :     0.793266  p :     2.570093
      px      :     0.827133
      py      :     0.949694
      dz2     :     0.010718  d :     0.203031
      dxz     :     0.052350
      dyz     :     0.016111
      dx2y2   :     0.054608
      dxy     :     0.069244
      f0      :     0.001788  f :     0.017768
      f+1     :     0.001596
      f-1     :     0.000835
      f+2     :     0.002498
      f-2     :     0.001440
      f+3     :     0.005005
      f-3     :     0.004606

 40 O s       :     3.797987  s :     3.797987
      pz      :     1.412648  p :     4.496145
      px      :     1.386375
      py      :     1.697122
      dz2     :     0.002497  d :     0.028718
      dxz     :     0.009339
      dyz     :     0.000828
      dx2y2   :     0.007486
      dxy     :     0.008568
      f0      :     0.000178  f :     0.001800
      f+1     :     0.000174
      f-1     :     0.000026
      f+2     :     0.000343
      f-2     :     0.000120
      f+3     :     0.000473
      f-3     :     0.000485

 41 C s       :     2.896519  s :     2.896519
      pz      :     0.915551  p :     2.845030
      px      :     0.920665
      py      :     1.008814
      dz2     :     0.016730  d :     0.117117
      dxz     :     0.030387
      dyz     :     0.022710
      dx2y2   :     0.020987
      dxy     :     0.026303
      f0      :     0.001241  f :     0.007706
      f+1     :     0.001095
      f-1     :     0.001005
      f+2     :     0.001239
      f-2     :     0.000705
      f+3     :     0.001056
      f-3     :     0.001364

 42 C s       :     3.121885  s :     3.121885
      pz      :     0.817715  p :     2.338393
      px      :     0.746046
      py      :     0.774631
      dz2     :     0.066509  d :     0.271254
      dxz     :     0.074826
      dyz     :     0.053869
      dx2y2   :     0.040856
      dxy     :     0.035194
      f0      :     0.006819  f :     0.024693
      f+1     :     0.004051
      f-1     :     0.003557
      f+2     :     0.002706
      f-2     :     0.003226
      f+3     :     0.002931
      f-3     :     0.001403

 43 O s       :     3.810728  s :     3.810728
      pz      :     1.412748  p :     4.527332
      px      :     1.638161
      py      :     1.476423
      dz2     :     0.008719  d :     0.028626
      dxz     :     0.007932
      dyz     :     0.008279
      dx2y2   :     0.001928
      dxy     :     0.001769
      f0      :     0.000502  f :     0.001917
      f+1     :     0.000468
      f-1     :     0.000410
      f+2     :     0.000269
      f-2     :     0.000241
      f+3     :     0.000012
      f-3     :     0.000016

 44 O s       :     3.769740  s :     3.769740
      pz      :     1.505470  p :     4.422800
      px      :     1.314868
      py      :     1.602462
      dz2     :     0.009282  d :     0.039518
      dxz     :     0.010251
      dyz     :     0.005309
      dx2y2   :     0.006999
      dxy     :     0.007677
      f0      :     0.000199  f :     0.002083
      f+1     :     0.000375
      f-1     :     0.000144
      f+2     :     0.000258
      f-2     :     0.000303
      f+3     :     0.000398
      f-3     :     0.000405

 45 C s       :     3.249233  s :     3.249233
      pz      :     0.818583  p :     2.892702
      px      :     0.982571
      py      :     1.091548
      dz2     :     0.019476  d :     0.094854
      dxz     :     0.019772
      dyz     :     0.029619
      dx2y2   :     0.012074
      dxy     :     0.013913
      f0      :     0.001683  f :     0.008629
      f+1     :     0.001434
      f-1     :     0.000798
      f+2     :     0.001654
      f-2     :     0.001913
      f+3     :     0.000466
      f-3     :     0.000681

 46 C s       :     3.129009  s :     3.129009
      pz      :     0.802338  p :     2.755391
      px      :     1.029187
      py      :     0.923867
      dz2     :     0.019958  d :     0.128336
      dxz     :     0.027929
      dyz     :     0.033387
      dx2y2   :     0.023592
      dxy     :     0.023470
      f0      :     0.002098  f :     0.010263
      f+1     :     0.000923
      f-1     :     0.001832
      f+2     :     0.001861
      f-2     :     0.001461
      f+3     :     0.000948
      f-3     :     0.001141

 47 C s       :     3.177846  s :     3.177846
      pz      :     1.041090  p :     2.958916
      px      :     0.955882
      py      :     0.961944
      dz2     :     0.006014  d :     0.095394
      dxz     :     0.006371
      dyz     :     0.018060
      dx2y2   :     0.042077
      dxy     :     0.022871
      f0      :     0.000741  f :     0.007713
      f+1     :     0.000779
      f-1     :     0.001247
      f+2     :     0.000739
      f-2     :     0.000814
      f+3     :     0.001447
      f-3     :     0.001946

 48 C s       :     3.160047  s :     3.160047
      pz      :     0.878115  p :     2.643428
      px      :     0.870066
      py      :     0.895247
      dz2     :     0.013444  d :     0.140631
      dxz     :     0.022748
      dyz     :     0.020121
      dx2y2   :     0.044702
      dxy     :     0.039617
      f0      :     0.000957  f :     0.009810
      f+1     :     0.000917
      f-1     :     0.001161
      f+2     :     0.001241
      f-2     :     0.000879
      f+3     :     0.001383
      f-3     :     0.003273

 49 C s       :     3.230999  s :     3.230999
      pz      :     1.068116  p :     3.074177
      px      :     0.935147
      py      :     1.070914
      dz2     :     0.010052  d :     0.059993
      dxz     :     0.016584
      dyz     :     0.005017
      dx2y2   :     0.007645
      dxy     :     0.020695
      f0      :     0.001020  f :     0.004417
      f+1     :     0.000489
      f-1     :     0.000105
      f+2     :     0.000630
      f-2     :     0.000345
      f+3     :     0.001016
      f-3     :     0.000811

 50 C s       :     3.114444  s :     3.114444
      pz      :     0.946047  p :     2.899542
      px      :     1.015637
      py      :     0.937859
      dz2     :     0.016067  d :     0.095726
      dxz     :     0.021539
      dyz     :     0.028487
      dx2y2   :     0.016921
      dxy     :     0.012712
      f0      :     0.001362  f :     0.006445
      f+1     :     0.000972
      f-1     :     0.001213
      f+2     :     0.000566
      f-2     :     0.000567
      f+3     :     0.001048
      f-3     :     0.000716

 51 C s       :     3.207846  s :     3.207846
      pz      :     0.963184  p :     2.958347
      px      :     1.017135
      py      :     0.978028
      dz2     :     0.017213  d :     0.099831
      dxz     :     0.021290
      dyz     :     0.028137
      dx2y2   :     0.022174
      dxy     :     0.011017
      f0      :     0.001397  f :     0.006599
      f+1     :     0.001043
      f-1     :     0.001205
      f+2     :     0.000491
      f-2     :     0.000665
      f+3     :     0.000990
      f-3     :     0.000808

 52 C s       :     3.133558  s :     3.133558
      pz      :     0.957283  p :     2.918634
      px      :     0.991484
      py      :     0.969868
      dz2     :     0.014832  d :     0.097649
      dxz     :     0.021745
      dyz     :     0.027243
      dx2y2   :     0.020793
      dxy     :     0.013036
      f0      :     0.001377  f :     0.006574
      f+1     :     0.000922
      f-1     :     0.001224
      f+2     :     0.000560
      f-2     :     0.000712
      f+3     :     0.000974
      f-3     :     0.000805

 53 C s       :     3.070013  s :     3.070013
      pz      :     0.893315  p :     2.710324
      px      :     0.905426
      py      :     0.911583
      dz2     :     0.029589  d :     0.141107
      dxz     :     0.031126
      dyz     :     0.025669
      dx2y2   :     0.025020
      dxy     :     0.029704
      f0      :     0.001472  f :     0.008682
      f+1     :     0.001846
      f-1     :     0.001059
      f+2     :     0.000568
      f-2     :     0.001155
      f+3     :     0.001204
      f-3     :     0.001378

 54 C s       :     3.253022  s :     3.253022
      pz      :     1.051176  p :     3.096580
      px      :     0.983247
      py      :     1.062156
      dz2     :     0.019209  d :     0.062129
      dxz     :     0.008876
      dyz     :     0.004313
      dx2y2   :     0.005744
      dxy     :     0.023987
      f0      :     0.000928  f :     0.004504
      f+1     :     0.000789
      f-1     :     0.000234
      f+2     :     0.000415
      f-2     :     0.000553
      f+3     :     0.001034
      f-3     :     0.000551

 55 C s       :     3.138510  s :     3.138510
      pz      :     0.960863  p :     2.916057
      px      :     0.981808
      py      :     0.973386
      dz2     :     0.015033  d :     0.098028
      dxz     :     0.027167
      dyz     :     0.023409
      dx2y2   :     0.019567
      dxy     :     0.012852
      f0      :     0.001380  f :     0.006583
      f+1     :     0.000980
      f-1     :     0.000991
      f+2     :     0.000556
      f-2     :     0.000925
      f+3     :     0.000950
      f-3     :     0.000801

 56 C s       :     3.158835  s :     3.158835
      pz      :     0.979077  p :     2.967023
      px      :     1.000421
      py      :     0.987525
      dz2     :     0.014796  d :     0.099215
      dxz     :     0.027797
      dyz     :     0.023208
      dx2y2   :     0.021539
      dxy     :     0.011875
      f0      :     0.001447  f :     0.006623
      f+1     :     0.001017
      f-1     :     0.000901
      f+2     :     0.000456
      f-2     :     0.001006
      f+3     :     0.000967
      f-3     :     0.000829

 57 C s       :     3.138048  s :     3.138048
      pz      :     0.964579  p :     2.916305
      px      :     0.970457
      py      :     0.981269
      dz2     :     0.014077  d :     0.097997
      dxz     :     0.026553
      dyz     :     0.021672
      dx2y2   :     0.021806
      dxy     :     0.013889
      f0      :     0.001315  f :     0.006583
      f+1     :     0.000961
      f-1     :     0.000892
      f+2     :     0.000530
      f-2     :     0.001063
      f+3     :     0.001000
      f-3     :     0.000822

 58 C s       :     3.066965  s :     3.066965
      pz      :     0.895864  p :     2.709081
      px      :     0.899576
      py      :     0.913641
      dz2     :     0.032139  d :     0.140991
      dxz     :     0.032102
      dyz     :     0.023995
      dx2y2   :     0.026835
      dxy     :     0.025920
      f0      :     0.001621  f :     0.008681
      f+1     :     0.001601
      f-1     :     0.000891
      f+2     :     0.000799
      f-2     :     0.001489
      f+3     :     0.001330
      f-3     :     0.000950

 59 C s       :     3.253305  s :     3.253305
      pz      :     1.029675  p :     3.096517
      px      :     1.013606
      py      :     1.053236
      dz2     :     0.021277  d :     0.062239
      dxz     :     0.008184
      dyz     :     0.005136
      dx2y2   :     0.008588
      dxy     :     0.019053
      f0      :     0.000639  f :     0.004506
      f+1     :     0.001190
      f-1     :     0.000303
      f+2     :     0.000513
      f-2     :     0.000586
      f+3     :     0.000702
      f-3     :     0.000573

 60 C s       :     3.140610  s :     3.140610
      pz      :     0.968867  p :     2.915587
      px      :     0.961392
      py      :     0.985328
      dz2     :     0.016780  d :     0.098041
      dxz     :     0.026470
      dyz     :     0.018869
      dx2y2   :     0.021806
      dxy     :     0.014116
      f0      :     0.001146  f :     0.006579
      f+1     :     0.001084
      f-1     :     0.000691
      f+2     :     0.000574
      f-2     :     0.001265
      f+3     :     0.001030
      f-3     :     0.000788

 61 C s       :     3.164646  s :     3.164646
      pz      :     0.982770  p :     2.959898
      px      :     0.983695
      py      :     0.993433
      dz2     :     0.016479  d :     0.099143
      dxz     :     0.027334
      dyz     :     0.019169
      dx2y2   :     0.022071
      dxy     :     0.014089
      f0      :     0.001228  f :     0.006618
      f+1     :     0.001061
      f-1     :     0.000639
      f+2     :     0.000604
      f-2     :     0.001281
      f+3     :     0.001026
      f-3     :     0.000779

 62 C s       :     3.154823  s :     3.154823
      pz      :     0.970842  p :     2.917904
      px      :     0.951552
      py      :     0.995510
      dz2     :     0.015860  d :     0.097441
      dxz     :     0.026375
      dyz     :     0.016771
      dx2y2   :     0.022951
      dxy     :     0.015484
      f0      :     0.001007  f :     0.006543
      f+1     :     0.001117
      f-1     :     0.000652
      f+2     :     0.000592
      f-2     :     0.001291
      f+3     :     0.001085
      f-3     :     0.000799

 63 C s       :     3.075439  s :     3.075439
      pz      :     0.893318  p :     2.714883
      px      :     0.896936
      py      :     0.924630
      dz2     :     0.032395  d :     0.144001
      dxz     :     0.035761
      dyz     :     0.023431
      dx2y2   :     0.030137
      dxy     :     0.022277
      f0      :     0.001646  f :     0.008736
      f+1     :     0.001400
      f-1     :     0.000886
      f+2     :     0.001312
      f-2     :     0.001453
      f+3     :     0.001170
      f-3     :     0.000868

 64 C s       :     3.248092  s :     3.248092
      pz      :     1.005407  p :     3.082561
      px      :     1.035981
      py      :     1.041174
      dz2     :     0.017504  d :     0.062617
      dxz     :     0.014848
      dyz     :     0.006462
      dx2y2   :     0.011968
      dxy     :     0.011835
      f0      :     0.000650  f :     0.004550
      f+1     :     0.001039
      f-1     :     0.000456
      f+2     :     0.000843
      f-2     :     0.000613
      f+3     :     0.000365
      f-3     :     0.000585

 65 C s       :     3.233806  s :     3.233806
      pz      :     1.054310  p :     3.059778
      px      :     0.977807
      py      :     1.027661
      dz2     :     0.006543  d :     0.063483
      dxz     :     0.021486
      dyz     :     0.007587
      dx2y2   :     0.020186
      dxy     :     0.007680
      f0      :     0.000343  f :     0.004612
      f+1     :     0.001068
      f-1     :     0.000323
      f+2     :     0.000522
      f-2     :     0.000734
      f+3     :     0.000923
      f-3     :     0.000700

 66 H s       :     0.865015  s :     0.865015
      pz      :     0.006496  p :     0.021769
      px      :     0.004822
      py      :     0.010452

 67 H s       :     0.835351  s :     0.835351
      pz      :     0.005115  p :     0.023575
      px      :     0.014018
      py      :     0.004442

 68 H s       :     0.845955  s :     0.845955
      pz      :     0.006162  p :     0.020651
      px      :     0.004411
      py      :     0.010078

 69 H s       :     0.895056  s :     0.895056
      pz      :     0.008212  p :     0.021421
      px      :     0.008647
      py      :     0.004562

 70 H s       :     0.892436  s :     0.892436
      pz      :     0.005380  p :     0.020758
      px      :     0.004919
      py      :     0.010459

 71 H s       :     0.852112  s :     0.852112
      pz      :     0.005709  p :     0.019813
      px      :     0.009278
      py      :     0.004827

 72 H s       :     0.851417  s :     0.851417
      pz      :     0.005579  p :     0.019607
      px      :     0.004912
      py      :     0.009116

 73 H s       :     0.853907  s :     0.853907
      pz      :     0.005283  p :     0.019573
      px      :     0.007083
      py      :     0.007207

 74 H s       :     0.871320  s :     0.871320
      pz      :     0.004905  p :     0.019955
      px      :     0.004625
      py      :     0.010425

 75 H s       :     0.853862  s :     0.853862
      pz      :     0.005253  p :     0.020950
      px      :     0.010731
      py      :     0.004966

 76 H s       :     0.848896  s :     0.848896
      pz      :     0.005051  p :     0.021155
      px      :     0.004941
      py      :     0.011162

 77 H s       :     0.849374  s :     0.849374
      pz      :     0.004712  p :     0.020574
      px      :     0.010558
      py      :     0.005303

 78 H s       :     0.836502  s :     0.836502
      pz      :     0.006599  p :     0.020182
      px      :     0.008250
      py      :     0.005333

 79 H s       :     0.833020  s :     0.833020
      pz      :     0.009928  p :     0.020062
      px      :     0.005690
      py      :     0.004444

 80 H s       :     0.833688  s :     0.833688
      pz      :     0.004688  p :     0.021009
      px      :     0.007722
      py      :     0.008600

 81 H s       :     0.848099  s :     0.848099
      pz      :     0.004364  p :     0.019896
      px      :     0.009918
      py      :     0.005613

 82 H s       :     0.843276  s :     0.843276
      pz      :     0.010215  p :     0.020038
      px      :     0.004873
      py      :     0.004950

 83 H s       :     0.840462  s :     0.840462
      pz      :     0.005690  p :     0.020596
      px      :     0.004858
      py      :     0.010047

 84 H s       :     0.891467  s :     0.891467
      pz      :     0.008031  p :     0.020926
      px      :     0.008411
      py      :     0.004484

 85 H s       :     0.910396  s :     0.910396
      pz      :     0.005701  p :     0.020912
      px      :     0.004865
      py      :     0.010346

 86 H s       :     0.854706  s :     0.854706
      pz      :     0.004605  p :     0.019563
      px      :     0.004730
      py      :     0.010228

 87 H s       :     0.855753  s :     0.855753
      pz      :     0.007941  p :     0.019557
      px      :     0.007165
      py      :     0.004451

 88 H s       :     0.851099  s :     0.851099
      pz      :     0.005723  p :     0.019836
      px      :     0.008868
      py      :     0.005245

 89 H s       :     0.881894  s :     0.881894
      pz      :     0.005073  p :     0.020099
      px      :     0.009377
      py      :     0.005648

 90 H s       :     0.881194  s :     0.881194
      pz      :     0.004874  p :     0.019864
      px      :     0.007154
      py      :     0.007836

 91 H s       :     0.852623  s :     0.852623
      pz      :     0.010534  p :     0.019692
      px      :     0.004544
      py      :     0.004614

 92 H s       :     0.853213  s :     0.853213
      pz      :     0.004863  p :     0.019913
      px      :     0.009410
      py      :     0.005640

 93 H s       :     0.854388  s :     0.854388
      pz      :     0.004818  p :     0.020031
      px      :     0.007435
      py      :     0.007778

 94 H s       :     0.835715  s :     0.835715
      pz      :     0.004549  p :     0.019944
      px      :     0.010836
      py      :     0.004558

 95 H s       :     0.838213  s :     0.838213
      pz      :     0.006827  p :     0.019753
      px      :     0.004501
      py      :     0.008425

 96 H s       :     0.838907  s :     0.838907
      pz      :     0.009526  p :     0.019681
      px      :     0.004890
      py      :     0.005265

 97 H s       :     0.877632  s :     0.877632
      pz      :     0.008286  p :     0.021631
      px      :     0.005092
      py      :     0.008252

 98 H s       :     0.826728  s :     0.826728
      pz      :     0.003825  p :     0.019027
      px      :     0.009461
      py      :     0.005740

 99 H s       :     0.835944  s :     0.835944
      pz      :     0.006510  p :     0.018779
      px      :     0.005223
      py      :     0.007045

100 H s       :     0.834098  s :     0.834098
      pz      :     0.005452  p :     0.018781
      px      :     0.004305
      py      :     0.009024

101 H s       :     0.858544  s :     0.858544
      pz      :     0.005601  p :     0.019759
      px      :     0.007728
      py      :     0.006430

102 H s       :     0.833559  s :     0.833559
      pz      :     0.006088  p :     0.019631
      px      :     0.009245
      py      :     0.004298

103 H s       :     0.860829  s :     0.860829
      pz      :     0.005206  p :     0.020440
      px      :     0.011293
      py      :     0.003941

104 H s       :     0.852343  s :     0.852343
      pz      :     0.005826  p :     0.019737
      px      :     0.005864
      py      :     0.008047

105 H s       :     0.852025  s :     0.852025
      pz      :     0.005380  p :     0.020520
      px      :     0.005996
      py      :     0.009144

106 H s       :     0.840276  s :     0.840276
      pz      :     0.010269  p :     0.020222
      px      :     0.005224
      py      :     0.004729

107 H s       :     0.879085  s :     0.879085
      pz      :     0.005315  p :     0.020118
      px      :     0.010427
      py      :     0.004376

108 H s       :     0.886531  s :     0.886531
      pz      :     0.006203  p :     0.019884
      px      :     0.005380
      py      :     0.008301

109 H s       :     0.867456  s :     0.867456
      pz      :     0.005580  p :     0.020642
      px      :     0.010496
      py      :     0.004566

110 H s       :     0.891018  s :     0.891018
      pz      :     0.006087  p :     0.019897
      px      :     0.005360
      py      :     0.008450

111 H s       :     0.893759  s :     0.893759
      pz      :     0.005868  p :     0.020088
      px      :     0.009744
      py      :     0.004476

112 H s       :     0.900955  s :     0.900955
      pz      :     0.005826  p :     0.019719
      px      :     0.005543
      py      :     0.008350

113 H s       :     0.940899  s :     0.940899
      pz      :     0.005660  p :     0.020343
      px      :     0.005666
      py      :     0.009017

114 H s       :     0.852825  s :     0.852825
      pz      :     0.010727  p :     0.020315
      px      :     0.004791
      py      :     0.004798

115 H s       :     0.875466  s :     0.875466
      pz      :     0.005203  p :     0.019537
      px      :     0.006042
      py      :     0.008291

116 H s       :     0.854345  s :     0.854345
      pz      :     0.004871  p :     0.020285
      px      :     0.007201
      py      :     0.008213

117 H s       :     0.896231  s :     0.896231
      pz      :     0.006746  p :     0.020090
      px      :     0.008792
      py      :     0.004552

118 H s       :     0.902947  s :     0.902947
      pz      :     0.005462  p :     0.019735
      px      :     0.005392
      py      :     0.008881

119 H s       :     0.877294  s :     0.877294
      pz      :     0.007099  p :     0.020953
      px      :     0.009096
      py      :     0.004758

120 H s       :     0.904031  s :     0.904031
      pz      :     0.005505  p :     0.019788
      px      :     0.005192
      py      :     0.009092

121 H s       :     0.896835  s :     0.896835
      pz      :     0.007283  p :     0.020096
      px      :     0.008227
      py      :     0.004585

122 H s       :     0.903543  s :     0.903543
      pz      :     0.005327  p :     0.019740
      px      :     0.005296
      py      :     0.009116

123 H s       :     0.942764  s :     0.942764
      pz      :     0.005193  p :     0.020345
      px      :     0.005252
      py      :     0.009900

124 H s       :     0.853574  s :     0.853574
      pz      :     0.010236  p :     0.020296
      px      :     0.005368
      py      :     0.004693

125 H s       :     0.876199  s :     0.876199
      pz      :     0.004812  p :     0.019537
      px      :     0.005513
      py      :     0.009211

126 H s       :     0.853995  s :     0.853995
      pz      :     0.004855  p :     0.020311
      px      :     0.008454
      py      :     0.007002

127 H s       :     0.896671  s :     0.896671
      pz      :     0.008117  p :     0.020084
      px      :     0.007127
      py      :     0.004840

128 H s       :     0.903305  s :     0.903305
      pz      :     0.005172  p :     0.019731
      px      :     0.004980
      py      :     0.009579

129 H s       :     0.875003  s :     0.875003
      pz      :     0.008411  p :     0.020856
      px      :     0.007228
      py      :     0.005218

130 H s       :     0.904550  s :     0.904550
      pz      :     0.005271  p :     0.019782
      px      :     0.004794
      py      :     0.009718

131 H s       :     0.894304  s :     0.894304
      pz      :     0.008558  p :     0.019969
      px      :     0.006449
      py      :     0.004963

132 H s       :     0.901484  s :     0.901484
      pz      :     0.005105  p :     0.019682
      px      :     0.004813
      py      :     0.009764

133 H s       :     0.930236  s :     0.930236
      pz      :     0.004885  p :     0.020230
      px      :     0.004833
      py      :     0.010512

134 H s       :     0.862625  s :     0.862625
      pz      :     0.008835  p :     0.019682
      px      :     0.006264
      py      :     0.004584

135 H s       :     0.874559  s :     0.874559
      pz      :     0.004641  p :     0.019456
      px      :     0.005102
      py      :     0.009712

136 H s       :     0.852723  s :     0.852723
      pz      :     0.005260  p :     0.020112
      px      :     0.008845
      py      :     0.006007

137 H s       :     0.861304  s :     0.861304
      pz      :     0.008076  p :     0.019660
      px      :     0.007004
      py      :     0.004581

138 H s       :     0.863620  s :     0.863620
      pz      :     0.007761  p :     0.019613
      px      :     0.006462
      py      :     0.005389

139 H s       :     0.874742  s :     0.874742
      pz      :     0.004972  p :     0.019437
      px      :     0.004582
      py      :     0.009883



                     *******************************
                     * LOEWDIN POPULATION ANALYSIS *
                     *******************************

----------------------
LOEWDIN ATOMIC CHARGES
----------------------
   0 Mg:    0.358342
   1 C :   -0.065432
   2 C :   -0.103882
   3 C :   -0.101199
   4 C :   -0.104026
   5 N :    0.220810
   6 C :   -0.141203
   7 C :   -0.162023
   8 C :   -0.187042
   9 C :   -0.177358
  10 C :   -0.261734
  11 C :   -0.211411
  12 C :   -0.211001
  13 C :   -0.490455
  14 O :    0.091631
  15 O :    0.263040
  16 N :    0.180477
  17 C :   -0.176242
  18 C :   -0.088667
  19 C :   -0.082510
  20 C :   -0.159682
  21 C :   -0.245803
  22 C :   -0.326655
  23 O :    0.080959
  24 C :   -0.251877
  25 N :    0.216346
  26 C :   -0.171784
  27 C :   -0.190320
  28 C :   -0.169341
  29 C :   -0.166741
  30 C :   -0.263425
  31 C :   -0.250088
  32 C :   -0.299923
  33 N :    0.187743
  34 C :   -0.160044
  35 C :   -0.092339
  36 C :   -0.080603
  37 C :   -0.149877
  38 C :   -0.249467
  39 C :   -0.262795
  40 O :    0.096929
  41 C :   -0.109317
  42 C :   -0.479545
  43 O :    0.097842
  44 O :    0.261134
  45 C :   -0.297811
  46 C :   -0.264931
  47 C :   -0.175432
  48 C :   -0.185984
  49 C :   -0.250464
  50 C :   -0.215406
  51 C :   -0.249218
  52 C :   -0.239792
  53 C :   -0.280682
  54 C :   -0.282947
  55 C :   -0.240751
  56 C :   -0.259895
  57 C :   -0.241046
  58 C :   -0.281433
  59 C :   -0.283405
  60 C :   -0.241303
  61 C :   -0.260063
  62 C :   -0.243841
  63 C :   -0.308572
  64 C :   -0.287056
  65 C :   -0.287805
  66 H :    0.163069
  67 H :    0.163796
  68 H :    0.164144
  69 H :    0.168221
  70 H :    0.162872
  71 H :    0.122048
  72 H :    0.126998
  73 H :    0.123788
  74 H :    0.145791
  75 H :    0.142718
  76 H :    0.165017
  77 H :    0.151487
  78 H :    0.134293
  79 H :    0.135891
  80 H :    0.129524
  81 H :    0.127538
  82 H :    0.134021
  83 H :    0.138596
  84 H :    0.162691
  85 H :    0.163706
  86 H :    0.122925
  87 H :    0.125568
  88 H :    0.122284
  89 H :    0.137205
  90 H :    0.138023
  91 H :    0.119368
  92 H :    0.119922
  93 H :    0.122155
  94 H :    0.132334
  95 H :    0.136029
  96 H :    0.134580
  97 H :    0.177311
  98 H :    0.117567
  99 H :    0.113923
 100 H :    0.115044
 101 H :    0.134733
 102 H :    0.136926
 103 H :    0.144367
 104 H :    0.131304
 105 H :    0.125513
 106 H :    0.133082
 107 H :    0.142659
 108 H :    0.142821
 109 H :    0.133964
 110 H :    0.135820
 111 H :    0.137091
 112 H :    0.135773
 113 H :    0.148331
 114 H :    0.117225
 115 H :    0.120150
 116 H :    0.117109
 117 H :    0.135926
 118 H :    0.135047
 119 H :    0.131611
 120 H :    0.133912
 121 H :    0.135663
 122 H :    0.134886
 123 H :    0.147762
 124 H :    0.117049
 125 H :    0.119938
 126 H :    0.116873
 127 H :    0.135684
 128 H :    0.134890
 129 H :    0.132058
 130 H :    0.133914
 131 H :    0.135884
 132 H :    0.134802
 133 H :    0.146005
 134 H :    0.118300
 135 H :    0.119075
 136 H :    0.116614
 137 H :    0.117399
 138 H :    0.117451
 139 H :    0.118333

-------------------------------
LOEWDIN REDUCED ORBITAL CHARGES
-------------------------------
  0 Mgs       :     4.249740  s :     4.249740
      pz      :     2.133980  p :     6.688822
      px      :     2.293161
      py      :     2.261681
      dz2     :     0.081127  d :     0.703096
      dxz     :     0.112182
      dyz     :     0.082039
      dx2y2   :     0.178609
      dxy     :     0.249139

  1 C s       :     2.685497  s :     2.685497
      pz      :     0.895891  p :     2.823990
      px      :     0.946674
      py      :     0.981426
      dz2     :     0.049274  d :     0.498782
      dxz     :     0.071573
      dyz     :     0.077953
      dx2y2   :     0.161118
      dxy     :     0.138863
      f0      :     0.004484  f :     0.057163
      f+1     :     0.004818
      f-1     :     0.004861
      f+2     :     0.008562
      f-2     :     0.006295
      f+3     :     0.012648
      f-3     :     0.015496

  2 C s       :     2.746593  s :     2.746593
      pz      :     0.938330  p :     2.943647
      px      :     1.022936
      py      :     0.982380
      dz2     :     0.026066  d :     0.372934
      dxz     :     0.081322
      dyz     :     0.031435
      dx2y2   :     0.119659
      dxy     :     0.114453
      f0      :     0.003997  f :     0.040709
      f+1     :     0.005219
      f-1     :     0.001975
      f+2     :     0.005022
      f-2     :     0.004871
      f+3     :     0.009218
      f-3     :     0.010406

  3 C s       :     2.748315  s :     2.748315
      pz      :     0.932311  p :     2.943849
      px      :     1.006213
      py      :     1.005324
      dz2     :     0.038208  d :     0.368466
      dxz     :     0.027558
      dyz     :     0.068833
      dx2y2   :     0.125709
      dxy     :     0.108158
      f0      :     0.003207  f :     0.040570
      f+1     :     0.003482
      f-1     :     0.004825
      f+2     :     0.004730
      f-2     :     0.005604
      f+3     :     0.010030
      f-3     :     0.008693

  4 C s       :     2.749296  s :     2.749296
      pz      :     0.935834  p :     2.942315
      px      :     1.022296
      py      :     0.984185
      dz2     :     0.025602  d :     0.371500
      dxz     :     0.079216
      dyz     :     0.031496
      dx2y2   :     0.119200
      dxy     :     0.115986
      f0      :     0.003936  f :     0.040915
      f+1     :     0.005092
      f-1     :     0.002170
      f+2     :     0.004894
      f-2     :     0.005014
      f+3     :     0.009200
      f-3     :     0.010609

  5 N s       :     2.981361  s :     2.981361
      pz      :     1.132149  p :     3.567637
      px      :     1.154055
      py      :     1.281434
      dz2     :     0.020772  d :     0.211479
      dxz     :     0.044469
      dyz     :     0.020094
      dx2y2   :     0.063047
      dxy     :     0.063097
      f0      :     0.001307  f :     0.018713
      f+1     :     0.001561
      f-1     :     0.001375
      f+2     :     0.002893
      f-2     :     0.001943
      f+3     :     0.003713
      f-3     :     0.005921

  6 C s       :     2.702318  s :     2.702318
      pz      :     0.847727  p :     2.745389
      px      :     0.928193
      py      :     0.969469
      dz2     :     0.057364  d :     0.616836
      dxz     :     0.116025
      dyz     :     0.075065
      dx2y2   :     0.183892
      dxy     :     0.184490
      f0      :     0.005581  f :     0.076660
      f+1     :     0.006890
      f-1     :     0.005134
      f+2     :     0.012122
      f-2     :     0.007145
      f+3     :     0.017546
      f-3     :     0.022243

  7 C s       :     2.715915  s :     2.715915
      pz      :     0.977710  p :     2.904154
      px      :     0.967183
      py      :     0.959262
      dz2     :     0.074622  d :     0.487780
      dxz     :     0.124981
      dyz     :     0.089333
      dx2y2   :     0.119883
      dxy     :     0.078961
      f0      :     0.006778  f :     0.054174
      f+1     :     0.007127
      f-1     :     0.007565
      f+2     :     0.008353
      f-2     :     0.005747
      f+3     :     0.010650
      f-3     :     0.007954

  8 C s       :     2.721386  s :     2.721386
      pz      :     0.993830  p :     2.918187
      px      :     0.954867
      py      :     0.969491
      dz2     :     0.112385  d :     0.492611
      dxz     :     0.108452
      dyz     :     0.089446
      dx2y2   :     0.090168
      dxy     :     0.092162
      f0      :     0.006986  f :     0.054857
      f+1     :     0.010776
      f-1     :     0.008106
      f+2     :     0.006449
      f-2     :     0.008065
      f+3     :     0.007921
      f-3     :     0.006553

  9 C s       :     2.710838  s :     2.710838
      pz      :     0.841189  p :     2.761984
      px      :     1.005350
      py      :     0.915446
      dz2     :     0.067279  d :     0.627117
      dxz     :     0.119944
      dyz     :     0.082295
      dx2y2   :     0.174209
      dxy     :     0.183389
      f0      :     0.005685  f :     0.077419
      f+1     :     0.006968
      f-1     :     0.007094
      f+2     :     0.010986
      f-2     :     0.009429
      f+3     :     0.012253
      f-3     :     0.025004

 10 C s       :     2.830907  s :     2.830907
      pz      :     1.008153  p :     3.141470
      px      :     1.066176
      py      :     1.067141
      dz2     :     0.057998  d :     0.264050
      dxz     :     0.071659
      dyz     :     0.070809
      dx2y2   :     0.028530
      dxy     :     0.035053
      f0      :     0.005342  f :     0.025307
      f+1     :     0.005525
      f-1     :     0.005859
      f+2     :     0.002885
      f-2     :     0.002452
      f+3     :     0.001824
      f-3     :     0.001420

 11 C s       :     2.771170  s :     2.771170
      pz      :     0.985779  p :     3.008828
      px      :     1.016033
      py      :     1.007016
      dz2     :     0.094343  d :     0.392870
      dxz     :     0.089063
      dyz     :     0.080344
      dx2y2   :     0.086891
      dxy     :     0.042229
      f0      :     0.008263  f :     0.038544
      f+1     :     0.005651
      f-1     :     0.005128
      f+2     :     0.005905
      f-2     :     0.006938
      f+3     :     0.002349
      f-3     :     0.004309

 12 C s       :     2.773109  s :     2.773109
      pz      :     0.990714  p :     3.032559
      px      :     1.025679
      py      :     1.016166
      dz2     :     0.091251  d :     0.367222
      dxz     :     0.078863
      dyz     :     0.079461
      dx2y2   :     0.071488
      dxy     :     0.046160
      f0      :     0.006976  f :     0.038111
      f+1     :     0.006030
      f-1     :     0.005483
      f+2     :     0.005680
      f-2     :     0.007081
      f+3     :     0.002227
      f-3     :     0.004633

 13 C s       :     2.756136  s :     2.756136
      pz      :     0.886647  p :     2.644147
      px      :     0.962288
      py      :     0.795213
      dz2     :     0.148965  d :     0.938250
      dxz     :     0.299890
      dyz     :     0.069668
      dx2y2   :     0.191886
      dxy     :     0.227841
      f0      :     0.019255  f :     0.151921
      f+1     :     0.031779
      f-1     :     0.007565
      f+2     :     0.026243
      f-2     :     0.019864
      f+3     :     0.023833
      f-3     :     0.023383

 14 O s       :     3.395244  s :     3.395244
      pz      :     1.527279  p :     4.439452
      px      :     1.506315
      py      :     1.405858
      dz2     :     0.008662  d :     0.067339
      dxz     :     0.019254
      dyz     :     0.001046
      dx2y2   :     0.022575
      dxy     :     0.015802
      f0      :     0.000693  f :     0.006334
      f+1     :     0.001196
      f-1     :     0.000096
      f+2     :     0.001124
      f-2     :     0.000204
      f+3     :     0.001634
      f-3     :     0.001387

 15 O s       :     3.273564  s :     3.273564
      pz      :     1.345331  p :     4.352451
      px      :     1.541992
      py      :     1.465128
      dz2     :     0.023379  d :     0.104576
      dxz     :     0.030482
      dyz     :     0.021512
      dx2y2   :     0.014169
      dxy     :     0.015034
      f0      :     0.000866  f :     0.006369
      f+1     :     0.001279
      f-1     :     0.000782
      f+2     :     0.001140
      f-2     :     0.001059
      f+3     :     0.000632
      f-3     :     0.000612

 16 N s       :     2.977330  s :     2.977330
      pz      :     1.188358  p :     3.619553
      px      :     1.279797
      py      :     1.151398
      dz2     :     0.022265  d :     0.204057
      dxz     :     0.023522
      dyz     :     0.036745
      dx2y2   :     0.062328
      dxy     :     0.059197
      f0      :     0.001376  f :     0.018583
      f+1     :     0.001233
      f-1     :     0.001772
      f+2     :     0.002449
      f-2     :     0.002165
      f+3     :     0.005883
      f-3     :     0.003705

 17 C s       :     2.694386  s :     2.694386
      pz      :     0.861250  p :     2.769181
      px      :     0.987171
      py      :     0.920760
      dz2     :     0.068371  d :     0.633865
      dxz     :     0.093020
      dyz     :     0.107141
      dx2y2   :     0.181032
      dxy     :     0.184300
      f0      :     0.005408  f :     0.078809
      f+1     :     0.004885
      f-1     :     0.008182
      f+2     :     0.012757
      f-2     :     0.008938
      f+3     :     0.020555
      f-3     :     0.018085

 18 C s       :     2.710005  s :     2.710005
      pz      :     0.842161  p :     2.804155
      px      :     0.978626
      py      :     0.983368
      dz2     :     0.049369  d :     0.515919
      dxz     :     0.080014
      dyz     :     0.081385
      dx2y2   :     0.160925
      dxy     :     0.144225
      f0      :     0.004048  f :     0.058587
      f+1     :     0.004707
      f-1     :     0.005567
      f+2     :     0.009036
      f-2     :     0.006597
      f+3     :     0.009406
      f-3     :     0.019226

 19 C s       :     2.704581  s :     2.704581
      pz      :     0.908524  p :     2.847747
      px      :     0.964960
      py      :     0.974263
      dz2     :     0.051597  d :     0.474515
      dxz     :     0.065250
      dyz     :     0.065379
      dx2y2   :     0.145910
      dxy     :     0.146378
      f0      :     0.004043  f :     0.055667
      f+1     :     0.006025
      f-1     :     0.003664
      f+2     :     0.005870
      f-2     :     0.007988
      f+3     :     0.011722
      f-3     :     0.016355

 20 C s       :     2.695331  s :     2.695331
      pz      :     0.853051  p :     2.750663
      px      :     0.920065
      py      :     0.977547
      dz2     :     0.060261  d :     0.634876
      dxz     :     0.113244
      dyz     :     0.090834
      dx2y2   :     0.184243
      dxy     :     0.186293
      f0      :     0.005219  f :     0.078812
      f+1     :     0.007218
      f-1     :     0.005590
      f+2     :     0.008172
      f-2     :     0.012753
      f+3     :     0.026217
      f-3     :     0.013645

 21 C s       :     2.813099  s :     2.813099
      pz      :     1.061987  p :     3.149032
      px      :     1.054724
      py      :     1.032322
      dz2     :     0.050267  d :     0.257722
      dxz     :     0.048052
      dyz     :     0.038508
      dx2y2   :     0.042914
      dxy     :     0.077980
      f0      :     0.002521  f :     0.025950
      f+1     :     0.002734
      f-1     :     0.004210
      f+2     :     0.004320
      f-2     :     0.002928
      f+3     :     0.003932
      f-3     :     0.005305

 22 C s       :     2.759325  s :     2.759325
      pz      :     0.813842  p :     2.688243
      px      :     0.996414
      py      :     0.877987
      dz2     :     0.108172  d :     0.769723
      dxz     :     0.144527
      dyz     :     0.127790
      dx2y2   :     0.183516
      dxy     :     0.205717
      f0      :     0.009008  f :     0.109365
      f+1     :     0.008255
      f-1     :     0.015733
      f+2     :     0.021132
      f-2     :     0.014328
      f+3     :     0.017391
      f-3     :     0.023517

 23 O s       :     3.401541  s :     3.401541
      pz      :     1.384769  p :     4.443343
      px      :     1.628348
      py      :     1.430226
      dz2     :     0.008963  d :     0.068180
      dxz     :     0.008533
      dyz     :     0.018726
      dx2y2   :     0.014723
      dxy     :     0.017236
      f0      :     0.000457  f :     0.005977
      f+1     :     0.000242
      f-1     :     0.000944
      f+2     :     0.001192
      f-2     :     0.001241
      f+3     :     0.000902
      f-3     :     0.000999

 24 C s       :     2.835327  s :     2.835327
      pz      :     1.057061  p :     3.163568
      px      :     1.044943
      py      :     1.061565
      dz2     :     0.054286  d :     0.228546
      dxz     :     0.033279
      dyz     :     0.042106
      dx2y2   :     0.052100
      dxy     :     0.046776
      f0      :     0.002741  f :     0.024435
      f+1     :     0.003961
      f-1     :     0.002198
      f+2     :     0.004594
      f-2     :     0.003604
      f+3     :     0.002263
      f-3     :     0.005073

 25 N s       :     2.979537  s :     2.979537
      pz      :     1.127797  p :     3.572470
      px      :     1.168249
      py      :     1.276424
      dz2     :     0.020385  d :     0.212978
      dxz     :     0.042821
      dyz     :     0.020126
      dx2y2   :     0.064622
      dxy     :     0.065025
      f0      :     0.001278  f :     0.018669
      f+1     :     0.001576
      f-1     :     0.001315
      f+2     :     0.002893
      f-2     :     0.001775
      f+3     :     0.003720
      f-3     :     0.006112

 26 C s       :     2.711073  s :     2.711073
      pz      :     0.831107  p :     2.755387
      px      :     0.952388
      py      :     0.971892
      dz2     :     0.054050  d :     0.627859
      dxz     :     0.121455
      dyz     :     0.072379
      dx2y2   :     0.190238
      dxy     :     0.189737
      f0      :     0.005497  f :     0.077465
      f+1     :     0.007076
      f-1     :     0.004624
      f+2     :     0.012218
      f-2     :     0.006879
      f+3     :     0.017753
      f-3     :     0.023417

 27 C s       :     2.720984  s :     2.720984
      pz      :     0.989268  p :     2.921414
      px      :     0.967309
      py      :     0.964837
      dz2     :     0.078236  d :     0.492941
      dxz     :     0.126939
      dyz     :     0.089762
      dx2y2   :     0.116574
      dxy     :     0.081429
      f0      :     0.007247  f :     0.054981
      f+1     :     0.007055
      f-1     :     0.007796
      f+2     :     0.008358
      f-2     :     0.005769
      f+3     :     0.010903
      f-3     :     0.007853

 28 C s       :     2.721112  s :     2.721112
      pz      :     0.982744  p :     2.906384
      px      :     0.955925
      py      :     0.967716
      dz2     :     0.106101  d :     0.488013
      dxz     :     0.106342
      dyz     :     0.092410
      dx2y2   :     0.089756
      dxy     :     0.093403
      f0      :     0.007016  f :     0.053831
      f+1     :     0.010198
      f-1     :     0.007067
      f+2     :     0.006695
      f-2     :     0.008020
      f+3     :     0.008130
      f-3     :     0.006704

 29 C s       :     2.711067  s :     2.711067
      pz      :     0.839871  p :     2.760095
      px      :     1.006853
      py      :     0.913371
      dz2     :     0.063318  d :     0.619311
      dxz     :     0.116914
      dyz     :     0.081963
      dx2y2   :     0.174415
      dxy     :     0.182700
      f0      :     0.005540  f :     0.076268
      f+1     :     0.006586
      f-1     :     0.006973
      f+2     :     0.010479
      f-2     :     0.009238
      f+3     :     0.012627
      f-3     :     0.024825

 30 C s       :     2.831134  s :     2.831134
      pz      :     1.038478  p :     3.142110
      px      :     1.059131
      py      :     1.044501
      dz2     :     0.055175  d :     0.264850
      dxz     :     0.082251
      dyz     :     0.040638
      dx2y2   :     0.058377
      dxy     :     0.028409
      f0      :     0.005433  f :     0.025331
      f+1     :     0.003004
      f-1     :     0.003956
      f+2     :     0.004408
      f-2     :     0.003545
      f+3     :     0.001788
      f-3     :     0.003197

 31 C s       :     2.780604  s :     2.780604
      pz      :     0.982487  p :     3.030610
      px      :     1.024668
      py      :     1.023456
      dz2     :     0.106396  d :     0.400509
      dxz     :     0.063659
      dyz     :     0.095748
      dx2y2   :     0.043448
      dxy     :     0.091258
      f0      :     0.005553  f :     0.038364
      f+1     :     0.006316
      f-1     :     0.009554
      f+2     :     0.004533
      f-2     :     0.004817
      f+3     :     0.003336
      f-3     :     0.004254

 32 C s       :     2.829687  s :     2.829687
      pz      :     1.051389  p :     3.177464
      px      :     1.069336
      py      :     1.056739
      dz2     :     0.086669  d :     0.266950
      dxz     :     0.011641
      dyz     :     0.040766
      dx2y2   :     0.040613
      dxy     :     0.087260
      f0      :     0.003290  f :     0.025822
      f+1     :     0.001630
      f-1     :     0.004690
      f+2     :     0.004238
      f-2     :     0.004425
      f+3     :     0.003282
      f-3     :     0.004267

 33 N s       :     2.973948  s :     2.973948
      pz      :     1.180967  p :     3.614834
      px      :     1.300099
      py      :     1.133768
      dz2     :     0.021926  d :     0.204281
      dxz     :     0.021799
      dyz     :     0.037501
      dx2y2   :     0.063763
      dxy     :     0.059292
      f0      :     0.001380  f :     0.019194
      f+1     :     0.001297
      f-1     :     0.001700
      f+2     :     0.002131
      f-2     :     0.002523
      f+3     :     0.006103
      f-3     :     0.004060

 34 C s       :     2.698915  s :     2.698915
      pz      :     0.864277  p :     2.762156
      px      :     0.983279
      py      :     0.914600
      dz2     :     0.063523  d :     0.622071
      dxz     :     0.094421
      dyz     :     0.101903
      dx2y2   :     0.177916
      dxy     :     0.184309
      f0      :     0.005182  f :     0.076903
      f+1     :     0.004987
      f-1     :     0.007694
      f+2     :     0.012084
      f-2     :     0.008812
      f+3     :     0.018099
      f-3     :     0.020046

 35 C s       :     2.711212  s :     2.711212
      pz      :     0.853775  p :     2.809900
      px      :     0.975216
      py      :     0.980908
      dz2     :     0.046985  d :     0.512858
      dxz     :     0.075608
      dyz     :     0.082395
      dx2y2   :     0.167077
      dxy     :     0.140792
      f0      :     0.004001  f :     0.058370
      f+1     :     0.004340
      f-1     :     0.005690
      f+2     :     0.009758
      f-2     :     0.005656
      f+3     :     0.009535
      f-3     :     0.019389

 36 C s       :     2.686164  s :     2.686164
      pz      :     0.900146  p :     2.832758
      px      :     0.960062
      py      :     0.972550
      dz2     :     0.053884  d :     0.498388
      dxz     :     0.059970
      dyz     :     0.077089
      dx2y2   :     0.134315
      dxy     :     0.173130
      f0      :     0.004308  f :     0.063293
      f+1     :     0.005494
      f-1     :     0.004476
      f+2     :     0.005121
      f-2     :     0.010368
      f+3     :     0.018468
      f-3     :     0.015057

 37 C s       :     2.664648  s :     2.664648
      pz      :     0.831445  p :     2.721549
      px      :     0.935556
      py      :     0.954549
      dz2     :     0.063640  d :     0.676918
      dxz     :     0.129025
      dyz     :     0.092565
      dx2y2   :     0.197692
      dxy     :     0.193996
      f0      :     0.005530  f :     0.086760
      f+1     :     0.007762
      f-1     :     0.005639
      f+2     :     0.007389
      f-2     :     0.014904
      f+3     :     0.029973
      f-3     :     0.015564

 38 C s       :     2.815392  s :     2.815392
      pz      :     1.060468  p :     3.151762
      px      :     1.054953
      py      :     1.036341
      dz2     :     0.044825  d :     0.256211
      dxz     :     0.019911
      dyz     :     0.073556
      dx2y2   :     0.077926
      dxy     :     0.039992
      f0      :     0.002287  f :     0.026103
      f+1     :     0.003776
      f-1     :     0.003503
      f+2     :     0.003076
      f-2     :     0.004004
      f+3     :     0.004195
      f-3     :     0.005261

 39 C s       :     2.746642  s :     2.746642
      pz      :     0.748978  p :     2.648942
      px      :     0.978580
      py      :     0.921384
      dz2     :     0.055745  d :     0.763350
      dxz     :     0.159731
      dyz     :     0.055107
      dx2y2   :     0.232430
      dxy     :     0.260336
      f0      :     0.007317  f :     0.103861
      f+1     :     0.011357
      f-1     :     0.003854
      f+2     :     0.013160
      f-2     :     0.010389
      f+3     :     0.030568
      f-3     :     0.027216

 40 O s       :     3.398820  s :     3.398820
      pz      :     1.326409  p :     4.429595
      px      :     1.515706
      py      :     1.587481
      dz2     :     0.007426  d :     0.068507
      dxz     :     0.014677
      dyz     :     0.001423
      dx2y2   :     0.022515
      dxy     :     0.022466
      f0      :     0.000514  f :     0.006149
      f+1     :     0.000872
      f-1     :     0.000155
      f+2     :     0.000743
      f-2     :     0.000302
      f+3     :     0.001744
      f-3     :     0.001818

 41 C s       :     2.727758  s :     2.727758
      pz      :     0.978221  p :     2.895254
      px      :     0.952069
      py      :     0.964964
      dz2     :     0.072428  d :     0.439024
      dxz     :     0.105413
      dyz     :     0.086350
      dx2y2   :     0.092513
      dxy     :     0.082320
      f0      :     0.007114  f :     0.047281
      f+1     :     0.006975
      f-1     :     0.005313
      f+2     :     0.006748
      f-2     :     0.005491
      f+3     :     0.006765
      f-3     :     0.008875

 42 C s       :     2.749605  s :     2.749605
      pz      :     1.012845  p :     2.640634
      px      :     0.853498
      py      :     0.774291
      dz2     :     0.249897  d :     0.937643
      dxz     :     0.262774
      dyz     :     0.164784
      dx2y2   :     0.131143
      dxy     :     0.129045
      f0      :     0.042110  f :     0.151663
      f+1     :     0.024781
      f-1     :     0.019958
      f+2     :     0.017549
      f-2     :     0.021248
      f+3     :     0.013964
      f-3     :     0.012053

 43 O s       :     3.394979  s :     3.394979
      pz      :     1.514199  p :     4.433143
      px      :     1.535312
      py      :     1.383632
      dz2     :     0.025918  d :     0.067670
      dxz     :     0.020343
      dyz     :     0.014450
      dx2y2   :     0.003368
      dxy     :     0.003590
      f0      :     0.001861  f :     0.006366
      f+1     :     0.001843
      f-1     :     0.001092
      f+2     :     0.000702
      f-2     :     0.000751
      f+3     :     0.000052
      f-3     :     0.000066

 44 O s       :     3.262891  s :     3.262891
      pz      :     1.493812  p :     4.358859
      px      :     1.355766
      py      :     1.509281
      dz2     :     0.023432  d :     0.110327
      dxz     :     0.030540
      dyz     :     0.013832
      dx2y2   :     0.019825
      dxy     :     0.022699
      f0      :     0.001261  f :     0.006790
      f+1     :     0.001284
      f-1     :     0.000603
      f+2     :     0.000809
      f-2     :     0.001053
      f+3     :     0.000743
      f-3     :     0.001037

 45 C s       :     2.867455  s :     2.867455
      pz      :     0.910770  p :     3.015409
      px      :     1.002301
      py      :     1.102338
      dz2     :     0.080801  d :     0.361889
      dxz     :     0.088664
      dyz     :     0.101808
      dx2y2   :     0.040974
      dxy     :     0.049643
      f0      :     0.012275  f :     0.053058
      f+1     :     0.012521
      f-1     :     0.005034
      f+2     :     0.008271
      f-2     :     0.008427
      f+3     :     0.003260
      f-3     :     0.003270

 46 C s       :     2.801645  s :     2.801645
      pz      :     0.860904  p :     2.909262
      px      :     1.056547
      py      :     0.991810
      dz2     :     0.075642  d :     0.489456
      dxz     :     0.118937
      dyz     :     0.124458
      dx2y2   :     0.081940
      dxy     :     0.088480
      f0      :     0.012778  f :     0.064568
      f+1     :     0.006661
      f-1     :     0.013496
      f+2     :     0.009266
      f-2     :     0.009241
      f+3     :     0.005549
      f-3     :     0.007577

 47 C s       :     2.780661  s :     2.780661
      pz      :     0.946855  p :     2.978562
      px      :     1.006231
      py      :     1.025475
      dz2     :     0.028883  d :     0.375672
      dxz     :     0.021005
      dyz     :     0.065187
      dx2y2   :     0.164092
      dxy     :     0.096505
      f0      :     0.003033  f :     0.040537
      f+1     :     0.003290
      f-1     :     0.004490
      f+2     :     0.003753
      f-2     :     0.005854
      f+3     :     0.008259
      f-3     :     0.011859

 48 C s       :     2.736964  s :     2.736964
      pz      :     0.828373  p :     2.858705
      px      :     1.016137
      py      :     1.014195
      dz2     :     0.051958  d :     0.534026
      dxz     :     0.079862
      dyz     :     0.077055
      dx2y2   :     0.170011
      dxy     :     0.155139
      f0      :     0.004184  f :     0.056289
      f+1     :     0.004670
      f-1     :     0.004572
      f+2     :     0.007518
      f-2     :     0.006898
      f+3     :     0.008620
      f-3     :     0.019827

 49 C s       :     2.816961  s :     2.816961
      pz      :     1.064897  p :     3.150778
      px      :     1.025879
      py      :     1.060002
      dz2     :     0.047261  d :     0.256969
      dxz     :     0.058512
      dyz     :     0.022112
      dx2y2   :     0.049077
      dxy     :     0.080007
      f0      :     0.004299  f :     0.025757
      f+1     :     0.003222
      f-1     :     0.000463
      f+2     :     0.004349
      f-2     :     0.003401
      f+3     :     0.004927
      f-3     :     0.005096

 50 C s       :     2.769949  s :     2.769949
      pz      :     1.006763  p :     3.013604
      px      :     1.013362
      py      :     0.993479
      dz2     :     0.080239  d :     0.392934
      dxz     :     0.073895
      dyz     :     0.101922
      dx2y2   :     0.079311
      dxy     :     0.057566
      f0      :     0.006848  f :     0.038920
      f+1     :     0.006126
      f-1     :     0.006784
      f+2     :     0.004649
      f-2     :     0.005067
      f+3     :     0.005160
      f-3     :     0.004286

 51 C s       :     2.778667  s :     2.778667
      pz      :     0.995174  p :     3.031820
      px      :     1.023483
      py      :     1.013163
      dz2     :     0.082244  d :     0.399562
      dxz     :     0.075107
      dyz     :     0.101988
      dx2y2   :     0.084893
      dxy     :     0.055330
      f0      :     0.006964  f :     0.039169
      f+1     :     0.006534
      f-1     :     0.006702
      f+2     :     0.004349
      f-2     :     0.005351
      f+3     :     0.004681
      f-3     :     0.004590

 52 C s       :     2.776987  s :     2.776987
      pz      :     0.995854  p :     3.021640
      px      :     1.016171
      py      :     1.009615
      dz2     :     0.077686  d :     0.402392
      dxz     :     0.085060
      dyz     :     0.099042
      dx2y2   :     0.079217
      dxy     :     0.061386
      f0      :     0.006883  f :     0.038773
      f+1     :     0.005560
      f-1     :     0.006988
      f+2     :     0.005066
      f-2     :     0.005061
      f+3     :     0.004630
      f-3     :     0.004585

 53 C s       :     2.736961  s :     2.736961
      pz      :     0.986266  p :     2.966252
      px      :     0.994786
      py      :     0.985201
      dz2     :     0.113801  d :     0.524347
      dxz     :     0.110622
      dyz     :     0.095254
      dx2y2   :     0.092421
      dxy     :     0.112249
      f0      :     0.007976  f :     0.053121
      f+1     :     0.010801
      f-1     :     0.006409
      f+2     :     0.005715
      f-2     :     0.007816
      f+3     :     0.006771
      f-3     :     0.007633

 54 C s       :     2.828786  s :     2.828786
      pz      :     1.055935  p :     3.159665
      px      :     1.039253
      py      :     1.064477
      dz2     :     0.082368  d :     0.268954
      dxz     :     0.042350
      dyz     :     0.018156
      dx2y2   :     0.033479
      dxy     :     0.092601
      f0      :     0.003410  f :     0.025542
      f+1     :     0.004453
      f-1     :     0.001374
      f+2     :     0.004230
      f-2     :     0.004188
      f+3     :     0.004923
      f-3     :     0.002964

 55 C s       :     2.777056  s :     2.777056
      pz      :     1.009979  p :     3.021884
      px      :     1.004740
      py      :     1.007165
      dz2     :     0.075197  d :     0.403039
      dxz     :     0.104136
      dyz     :     0.085064
      dx2y2   :     0.072892
      dxy     :     0.065749
      f0      :     0.007354  f :     0.038772
      f+1     :     0.004850
      f-1     :     0.006500
      f+2     :     0.005528
      f-2     :     0.005170
      f+3     :     0.004910
      f-3     :     0.004459

 56 C s       :     2.776468  s :     2.776468
      pz      :     1.012711  p :     3.041201
      px      :     1.015070
      py      :     1.013420
      dz2     :     0.073376  d :     0.402646
      dxz     :     0.105233
      dyz     :     0.082430
      dx2y2   :     0.076131
      dxy     :     0.065475
      f0      :     0.007957  f :     0.039581
      f+1     :     0.005120
      f-1     :     0.006173
      f+2     :     0.005009
      f-2     :     0.005491
      f+3     :     0.005177
      f-3     :     0.004653

 57 C s       :     2.777134  s :     2.777134
      pz      :     0.997505  p :     3.022059
      px      :     1.010738
      py      :     1.013816
      dz2     :     0.071359  d :     0.403085
      dxz     :     0.108978
      dyz     :     0.076424
      dx2y2   :     0.074903
      dxy     :     0.071420
      f0      :     0.007210  f :     0.038769
      f+1     :     0.004658
      f-1     :     0.005981
      f+2     :     0.005307
      f-2     :     0.005670
      f+3     :     0.005402
      f-3     :     0.004541

 58 C s       :     2.737023  s :     2.737023
      pz      :     0.991596  p :     2.966762
      px      :     0.989498
      py      :     0.985668
      dz2     :     0.116685  d :     0.524506
      dxz     :     0.121637
      dyz     :     0.087026
      dx2y2   :     0.094340
      dxy     :     0.104818
      f0      :     0.009491  f :     0.053141
      f+1     :     0.008833
      f-1     :     0.006471
      f+2     :     0.006696
      f-2     :     0.008367
      f+3     :     0.008085
      f-3     :     0.005199

 59 C s       :     2.828774  s :     2.828774
      pz      :     1.049399  p :     3.159753
      px      :     1.046623
      py      :     1.063731
      dz2     :     0.086666  d :     0.269312
      dxz     :     0.045506
      dyz     :     0.023586
      dx2y2   :     0.037154
      dxy     :     0.076401
      f0      :     0.002910  f :     0.025565
      f+1     :     0.005681
      f-1     :     0.002457
      f+2     :     0.004527
      f-2     :     0.003445
      f+3     :     0.003524
      f-3     :     0.003022

 60 C s       :     2.777142  s :     2.777142
      pz      :     1.012431  p :     3.022169
      px      :     0.996831
      py      :     1.012908
      dz2     :     0.073094  d :     0.403241
      dxz     :     0.114078
      dyz     :     0.067261
      dx2y2   :     0.077532
      dxy     :     0.071276
      f0      :     0.006869  f :     0.038751
      f+1     :     0.004961
      f-1     :     0.005198
      f+2     :     0.004562
      f-2     :     0.006806
      f+3     :     0.006354
      f-3     :     0.004001

 61 C s       :     2.776605  s :     2.776605
      pz      :     1.017947  p :     3.041520
      px      :     1.007317
      py      :     1.016256
      dz2     :     0.071943  d :     0.402364
      dxz     :     0.111065
      dyz     :     0.069861
      dx2y2   :     0.079968
      dxy     :     0.069527
      f0      :     0.007507  f :     0.039574
      f+1     :     0.005208
      f-1     :     0.004963
      f+2     :     0.004332
      f-2     :     0.006931
      f+3     :     0.006586
      f-3     :     0.004047

 62 C s       :     2.777940  s :     2.777940
      pz      :     1.003383  p :     3.023713
      px      :     1.003472
      py      :     1.016858
      dz2     :     0.073211  d :     0.403451
      dxz     :     0.110772
      dyz     :     0.061878
      dx2y2   :     0.084620
      dxy     :     0.072970
      f0      :     0.006231  f :     0.038737
      f+1     :     0.005449
      f-1     :     0.004753
      f+2     :     0.004157
      f-2     :     0.007199
      f+3     :     0.006825
      f-3     :     0.004123

 63 C s       :     2.740004  s :     2.740004
      pz      :     0.997481  p :     2.983615
      px      :     0.995282
      py      :     0.990851
      dz2     :     0.118010  d :     0.531110
      dxz     :     0.129602
      dyz     :     0.085884
      dx2y2   :     0.107968
      dxy     :     0.089645
      f0      :     0.010245  f :     0.053843
      f+1     :     0.007850
      f-1     :     0.006653
      f+2     :     0.007788
      f-2     :     0.008534
      f+3     :     0.007439
      f-3     :     0.005334

 64 C s       :     2.831615  s :     2.831615
      pz      :     1.041273  p :     3.160373
      px      :     1.056856
      py      :     1.062243
      dz2     :     0.069102  d :     0.269524
      dxz     :     0.070495
      dyz     :     0.033582
      dx2y2   :     0.047447
      dxy     :     0.048899
      f0      :     0.004292  f :     0.025545
      f+1     :     0.004531
      f-1     :     0.003518
      f+2     :     0.004817
      f-2     :     0.003020
      f+3     :     0.002096
      f-3     :     0.003271

 65 C s       :     2.833246  s :     2.833246
      pz      :     1.062640  p :     3.158221
      px      :     1.034117
      py      :     1.061464
      dz2     :     0.029244  d :     0.270771
      dxz     :     0.092755
      dyz     :     0.030027
      dx2y2   :     0.075523
      dxy     :     0.043222
      f0      :     0.002456  f :     0.025567
      f+1     :     0.004494
      f-1     :     0.002659
      f+2     :     0.002324
      f-2     :     0.003979
      f+3     :     0.005861
      f-3     :     0.003794

 66 H s       :     0.775761  s :     0.775761
      pz      :     0.018468  p :     0.061170
      px      :     0.013399
      py      :     0.029303

 67 H s       :     0.769556  s :     0.769556
      pz      :     0.014862  p :     0.066648
      px      :     0.038529
      py      :     0.013257

 68 H s       :     0.775879  s :     0.775879
      pz      :     0.017863  p :     0.059976
      px      :     0.012833
      py      :     0.029280

 69 H s       :     0.773320  s :     0.773320
      pz      :     0.022541  p :     0.058459
      px      :     0.023160
      py      :     0.012758

 70 H s       :     0.779531  s :     0.779531
      pz      :     0.015041  p :     0.057598
      px      :     0.013699
      py      :     0.028858

 71 H s       :     0.817046  s :     0.817046
      pz      :     0.015539  p :     0.060905
      px      :     0.030965
      py      :     0.014401

 72 H s       :     0.812344  s :     0.812344
      pz      :     0.015197  p :     0.060658
      px      :     0.014765
      py      :     0.030696

 73 H s       :     0.815658  s :     0.815658
      pz      :     0.014449  p :     0.060554
      px      :     0.022847
      py      :     0.023258

 74 H s       :     0.795686  s :     0.795686
      pz      :     0.014258  p :     0.058523
      px      :     0.013079
      py      :     0.031186

 75 H s       :     0.796749  s :     0.796749
      pz      :     0.015117  p :     0.060533
      px      :     0.030235
      py      :     0.015181

 76 H s       :     0.774351  s :     0.774351
      pz      :     0.014670  p :     0.060631
      px      :     0.013595
      py      :     0.032367

 77 H s       :     0.788142  s :     0.788142
      pz      :     0.013434  p :     0.060371
      px      :     0.030567
      py      :     0.016371

 78 H s       :     0.804303  s :     0.804303
      pz      :     0.021573  p :     0.061405
      px      :     0.025320
      py      :     0.014511

 79 H s       :     0.803119  s :     0.803119
      pz      :     0.031564  p :     0.060990
      px      :     0.016608
      py      :     0.012818

 80 H s       :     0.808637  s :     0.808637
      pz      :     0.013470  p :     0.061839
      px      :     0.024789
      py      :     0.023580

 81 H s       :     0.811405  s :     0.811405
      pz      :     0.012526  p :     0.061057
      px      :     0.030369
      py      :     0.018162

 82 H s       :     0.803963  s :     0.803963
      pz      :     0.032474  p :     0.062016
      px      :     0.015289
      py      :     0.014254

 83 H s       :     0.799018  s :     0.799018
      pz      :     0.018100  p :     0.062386
      px      :     0.013516
      py      :     0.030769

 84 H s       :     0.779557  s :     0.779557
      pz      :     0.022218  p :     0.057752
      px      :     0.022899
      py      :     0.012634

 85 H s       :     0.778818  s :     0.778818
      pz      :     0.015858  p :     0.057476
      px      :     0.013451
      py      :     0.028167

 86 H s       :     0.816598  s :     0.816598
      pz      :     0.014316  p :     0.060477
      px      :     0.013836
      py      :     0.032325

 87 H s       :     0.814016  s :     0.814016
      pz      :     0.023469  p :     0.060416
      px      :     0.024058
      py      :     0.012888

 88 H s       :     0.816702  s :     0.816702
      pz      :     0.016269  p :     0.061014
      px      :     0.028227
      py      :     0.016518

 89 H s       :     0.804286  s :     0.804286
      pz      :     0.014131  p :     0.058509
      px      :     0.029108
      py      :     0.015270

 90 H s       :     0.803787  s :     0.803787
      pz      :     0.013623  p :     0.058189
      px      :     0.022865
      py      :     0.021702

 91 H s       :     0.820085  s :     0.820085
      pz      :     0.033304  p :     0.060547
      px      :     0.013506
      py      :     0.013737

 92 H s       :     0.818873  s :     0.818873
      pz      :     0.014693  p :     0.061205
      px      :     0.030376
      py      :     0.016136

 93 H s       :     0.816581  s :     0.816581
      pz      :     0.014495  p :     0.061264
      px      :     0.023963
      py      :     0.022806

 94 H s       :     0.806854  s :     0.806854
      pz      :     0.013233  p :     0.060812
      px      :     0.033912
      py      :     0.013667

 95 H s       :     0.803633  s :     0.803633
      pz      :     0.022349  p :     0.060337
      px      :     0.013413
      py      :     0.024576

 96 H s       :     0.805059  s :     0.805059
      pz      :     0.030524  p :     0.060361
      px      :     0.015355
      py      :     0.014482

 97 H s       :     0.762390  s :     0.762390
      pz      :     0.023296  p :     0.060300
      px      :     0.014232
      py      :     0.022771

 98 H s       :     0.821153  s :     0.821153
      pz      :     0.012792  p :     0.061280
      px      :     0.030576
      py      :     0.017912

 99 H s       :     0.823934  s :     0.823934
      pz      :     0.021090  p :     0.062143
      px      :     0.017633
      py      :     0.023420

100 H s       :     0.822756  s :     0.822756
      pz      :     0.017201  p :     0.062201
      px      :     0.012848
      py      :     0.032151

101 H s       :     0.805062  s :     0.805062
      pz      :     0.016077  p :     0.060205
      px      :     0.025808
      py      :     0.018321

102 H s       :     0.803793  s :     0.803793
      pz      :     0.017295  p :     0.059281
      px      :     0.029976
      py      :     0.012010

103 H s       :     0.795141  s :     0.795141
      pz      :     0.015085  p :     0.060492
      px      :     0.034018
      py      :     0.011389

104 H s       :     0.808532  s :     0.808532
      pz      :     0.018182  p :     0.060164
      px      :     0.015574
      py      :     0.026408

105 H s       :     0.812853  s :     0.812853
      pz      :     0.016444  p :     0.061634
      px      :     0.015845
      py      :     0.029345

106 H s       :     0.805920  s :     0.805920
      pz      :     0.033372  p :     0.060998
      px      :     0.013933
      py      :     0.013693

107 H s       :     0.799531  s :     0.799531
      pz      :     0.014550  p :     0.057810
      px      :     0.031302
      py      :     0.011959

108 H s       :     0.799342  s :     0.799342
      pz      :     0.017242  p :     0.057836
      px      :     0.016855
      py      :     0.023740

109 H s       :     0.806456  s :     0.806456
      pz      :     0.015194  p :     0.059580
      px      :     0.031144
      py      :     0.013242

110 H s       :     0.805990  s :     0.805990
      pz      :     0.017013  p :     0.058190
      px      :     0.016841
      py      :     0.024336

111 H s       :     0.804890  s :     0.804890
      pz      :     0.015820  p :     0.058019
      px      :     0.029410
      py      :     0.012789

112 H s       :     0.806284  s :     0.806284
      pz      :     0.016362  p :     0.057943
      px      :     0.017248
      py      :     0.024333

113 H s       :     0.795626  s :     0.795626
      pz      :     0.015802  p :     0.056044
      px      :     0.015803
      py      :     0.024439

114 H s       :     0.821292  s :     0.821292
      pz      :     0.033631  p :     0.061483
      px      :     0.013717
      py      :     0.014135

115 H s       :     0.819792  s :     0.819792
      pz      :     0.016437  p :     0.060059
      px      :     0.017015
      py      :     0.026607

116 H s       :     0.821483  s :     0.821483
      pz      :     0.014192  p :     0.061409
      px      :     0.020516
      py      :     0.026701

117 H s       :     0.806112  s :     0.806112
      pz      :     0.018563  p :     0.057962
      px      :     0.026170
      py      :     0.013229

118 H s       :     0.807060  s :     0.807060
      pz      :     0.015169  p :     0.057893
      px      :     0.016418
      py      :     0.026306

119 H s       :     0.808637  s :     0.808637
      pz      :     0.019293  p :     0.059752
      px      :     0.026347
      py      :     0.014112

120 H s       :     0.808314  s :     0.808314
      pz      :     0.015261  p :     0.057774
      px      :     0.016016
      py      :     0.026497

121 H s       :     0.806386  s :     0.806386
      pz      :     0.019857  p :     0.057950
      px      :     0.024488
      py      :     0.013605

122 H s       :     0.807222  s :     0.807222
      pz      :     0.014750  p :     0.057891
      px      :     0.016226
      py      :     0.026916

123 H s       :     0.796243  s :     0.796243
      pz      :     0.014663  p :     0.055995
      px      :     0.014631
      py      :     0.026701

124 H s       :     0.821494  s :     0.821494
      pz      :     0.031241  p :     0.061457
      px      :     0.016446
      py      :     0.013770

125 H s       :     0.820026  s :     0.820026
      pz      :     0.014977  p :     0.060036
      px      :     0.015724
      py      :     0.029334

126 H s       :     0.821683  s :     0.821683
      pz      :     0.013667  p :     0.061443
      px      :     0.025153
      py      :     0.022624

127 H s       :     0.806383  s :     0.806383
      pz      :     0.022571  p :     0.057933
      px      :     0.020692
      py      :     0.014670

128 H s       :     0.807225  s :     0.807225
      pz      :     0.014312  p :     0.057884
      px      :     0.014787
      py      :     0.028786

129 H s       :     0.808304  s :     0.808304
      pz      :     0.022988  p :     0.059637
      px      :     0.020712
      py      :     0.015938

130 H s       :     0.808318  s :     0.808318
      pz      :     0.014614  p :     0.057768
      px      :     0.014318
      py      :     0.028836

131 H s       :     0.806220  s :     0.806220
      pz      :     0.023772  p :     0.057895
      px      :     0.018847
      py      :     0.015275

132 H s       :     0.807359  s :     0.807359
      pz      :     0.014112  p :     0.057839
      px      :     0.014402
      py      :     0.029325

133 H s       :     0.797933  s :     0.797933
      pz      :     0.014037  p :     0.056062
      px      :     0.013683
      py      :     0.028342

134 H s       :     0.821349  s :     0.821349
      pz      :     0.026266  p :     0.060351
      px      :     0.020695
      py      :     0.013390

135 H s       :     0.820858  s :     0.820858
      pz      :     0.014196  p :     0.060067
      px      :     0.014855
      py      :     0.031016

136 H s       :     0.822105  s :     0.822105
      pz      :     0.014537  p :     0.061281
      px      :     0.027449
      py      :     0.019294

137 H s       :     0.822263  s :     0.822263
      pz      :     0.027059  p :     0.060338
      px      :     0.019954
      py      :     0.013324

138 H s       :     0.822282  s :     0.822282
      pz      :     0.024938  p :     0.060267
      px      :     0.018158
      py      :     0.017171

139 H s       :     0.821532  s :     0.821532
      pz      :     0.014758  p :     0.060135
      px      :     0.013833
      py      :     0.031544



                      *****************************
                      * MAYER POPULATION ANALYSIS *
                      *****************************

  NA   - Mulliken gross atomic population
  ZA   - Total nuclear charge
  QA   - Mulliken gross atomic charge
  VA   - Mayer's total valence
  BVA  - Mayer's bonded valence
  FA   - Mayer's free valence

  ATOM       NA         ZA         QA         VA         BVA        FA
  0 Mg    11.2403    12.0000     0.7597     1.9843     1.9843    -0.0000
  1 C      6.2617     6.0000    -0.2617     3.9593     3.9593    -0.0000
  2 C      6.5499     6.0000    -0.5499     4.0836     4.0836     0.0000
  3 C      6.5112     6.0000    -0.5112     4.0202     4.0202    -0.0000
  4 C      6.5074     6.0000    -0.5074     3.9666     3.9666    -0.0000
  5 N      7.4289     7.0000    -0.4289     2.9864     2.9864    -0.0000
  6 C      5.8153     6.0000     0.1847     3.5519     3.5519    -0.0000
  7 C      5.8181     6.0000     0.1819     3.9712     3.9712    -0.0000
  8 C      5.9411     6.0000     0.0589     3.9988     3.9988    -0.0000
  9 C      5.7838     6.0000     0.2162     3.9622     3.9622    -0.0000
 10 C      6.4154     6.0000    -0.4154     3.9412     3.9412    -0.0000
 11 C      6.2721     6.0000    -0.2721     4.0940     4.0940    -0.0000
 12 C      6.1855     6.0000    -0.1855     3.9433     3.9433    -0.0000
 13 C      5.7220     6.0000     0.2780     4.3470     4.3470    -0.0000
 14 O      8.3771     8.0000    -0.3771     2.1307     2.1307    -0.0000
 15 O      8.2389     8.0000    -0.2389     2.1706     2.1706    -0.0000
 16 N      7.3874     7.0000    -0.3874     3.0706     3.0706     0.0000
 17 C      5.6264     6.0000     0.3736     3.5453     3.5453     0.0000
 18 C      6.0341     6.0000    -0.0341     3.8337     3.8337    -0.0000
 19 C      6.0708     6.0000    -0.0708     3.6242     3.6242    -0.0000
 20 C      5.7037     6.0000     0.2963     3.7005     3.7005     0.0000
 21 C      6.3648     6.0000    -0.3648     3.9319     3.9319    -0.0000
 22 C      5.8238     6.0000     0.1762     4.1246     4.1246    -0.0000
 23 O      8.3779     8.0000    -0.3779     2.0847     2.0847    -0.0000
 24 C      6.3331     6.0000    -0.3331     3.8522     3.8522    -0.0000
 25 N      7.3696     7.0000    -0.3696     3.0250     3.0250    -0.0000
 26 C      5.7216     6.0000     0.2784     3.7992     3.7992    -0.0000
 27 C      5.9629     6.0000     0.0371     4.0168     4.0168    -0.0000
 28 C      5.8868     6.0000     0.1132     3.9936     3.9936    -0.0000
 29 C      5.8090     6.0000     0.1910     3.8214     3.8214     0.0000
 30 C      6.4147     6.0000    -0.4147     3.9485     3.9485    -0.0000
 31 C      6.1730     6.0000    -0.1730     3.9932     3.9932    -0.0000
 32 C      6.4020     6.0000    -0.4020     3.9779     3.9779    -0.0000
 33 N      7.4243     7.0000    -0.4243     3.0206     3.0206     0.0000
 34 C      5.6700     6.0000     0.3300     3.7045     3.7045    -0.0000
 35 C      6.1497     6.0000    -0.1497     3.9143     3.9143     0.0000
 36 C      5.9456     6.0000     0.0544     3.3239     3.3239    -0.0000
 37 C      5.7057     6.0000     0.2943     3.5625     3.5625     0.0000
 38 C      6.4152     6.0000    -0.4152     3.8720     3.8720     0.0000
 39 C      5.9674     6.0000     0.0326     4.4575     4.4575    -0.0000
 40 O      8.3247     8.0000    -0.3247     2.1943     2.1943    -0.0000
 41 C      5.8664     6.0000     0.1336     3.5119     3.5119    -0.0000
 42 C      5.7562     6.0000     0.2438     4.3407     4.3407     0.0000
 43 O      8.3686     8.0000    -0.3686     2.1423     2.1423    -0.0000
 44 O      8.2341     8.0000    -0.2341     2.1907     2.1907    -0.0000
 45 C      6.2454     6.0000    -0.2454     3.8860     3.8860     0.0000
 46 C      6.0230     6.0000    -0.0230     3.9094     3.9094     0.0000
 47 C      6.2399     6.0000    -0.2399     3.9505     3.9505    -0.0000
 48 C      5.9539     6.0000     0.0461     3.9303     3.9303    -0.0000
 49 C      6.3696     6.0000    -0.3696     3.9195     3.9195    -0.0000
 50 C      6.1162     6.0000    -0.1162     3.9203     3.9203    -0.0000
 51 C      6.2726     6.0000    -0.2726     4.0641     4.0641    -0.0000
 52 C      6.1564     6.0000    -0.1564     3.9909     3.9909    -0.0000
 53 C      5.9301     6.0000     0.0699     3.9511     3.9511    -0.0000
 54 C      6.4162     6.0000    -0.4162     3.9326     3.9326     0.0000
 55 C      6.1592     6.0000    -0.1592     4.0203     4.0203    -0.0000
 56 C      6.2317     6.0000    -0.2317     4.0910     4.0910     0.0000
 57 C      6.1589     6.0000    -0.1589     4.0223     4.0223    -0.0000
 58 C      5.9257     6.0000     0.0743     3.9474     3.9474    -0.0000
 59 C      6.4166     6.0000    -0.4166     3.9335     3.9335    -0.0000
 60 C      6.1608     6.0000    -0.1608     4.0184     4.0184    -0.0000
 61 C      6.2303     6.0000    -0.2303     4.0769     4.0769    -0.0000
 62 C      6.1767     6.0000    -0.1767     3.9974     3.9974    -0.0000
 63 C      5.9431     6.0000     0.0569     3.9150     3.9150    -0.0000
 64 C      6.3978     6.0000    -0.3978     3.9287     3.9287    -0.0000
 65 C      6.3617     6.0000    -0.3617     3.9112     3.9112    -0.0000
 66 H      0.8868     1.0000     0.1132     0.9892     0.9892     0.0000
 67 H      0.8589     1.0000     0.1411     1.0123     1.0123     0.0000
 68 H      0.8666     1.0000     0.1334     0.9721     0.9721    -0.0000
 69 H      0.9165     1.0000     0.0835     0.9824     0.9824    -0.0000
 70 H      0.9132     1.0000     0.0868     0.9671     0.9671    -0.0000
 71 H      0.8719     1.0000     0.1281     0.9742     0.9742    -0.0000
 72 H      0.8710     1.0000     0.1290     0.9737     0.9737    -0.0000
 73 H      0.8735     1.0000     0.1265     0.9696     0.9696    -0.0000
 74 H      0.8913     1.0000     0.1087     0.9725     0.9725    -0.0000
 75 H      0.8748     1.0000     0.1252     0.9914     0.9914     0.0000
 76 H      0.8701     1.0000     0.1299     0.9835     0.9835    -0.0000
 77 H      0.8699     1.0000     0.1301     0.9850     0.9850    -0.0000
 78 H      0.8567     1.0000     0.1433     0.9626     0.9626     0.0000
 79 H      0.8531     1.0000     0.1469     0.9569     0.9569     0.0000
 80 H      0.8547     1.0000     0.1453     0.9721     0.9721    -0.0000
 81 H      0.8680     1.0000     0.1320     0.9936     0.9936     0.0000
 82 H      0.8633     1.0000     0.1367     0.9744     0.9744    -0.0000
 83 H      0.8611     1.0000     0.1389     0.9753     0.9753     0.0000
 84 H      0.9124     1.0000     0.0876     0.9680     0.9680     0.0000
 85 H      0.9313     1.0000     0.0687     0.9731     0.9731    -0.0000
 86 H      0.8743     1.0000     0.1257     0.9691     0.9691    -0.0000
 87 H      0.8753     1.0000     0.1247     0.9715     0.9715     0.0000
 88 H      0.8709     1.0000     0.1291     0.9754     0.9754     0.0000
 89 H      0.9020     1.0000     0.0980     0.9743     0.9743    -0.0000
 90 H      0.9011     1.0000     0.0989     0.9673     0.9673    -0.0000
 91 H      0.8723     1.0000     0.1277     0.9613     0.9613     0.0000
 92 H      0.8731     1.0000     0.1269     0.9688     0.9688    -0.0000
 93 H      0.8744     1.0000     0.1256     0.9743     0.9743     0.0000
 94 H      0.8557     1.0000     0.1443     0.9824     0.9824     0.0000
 95 H      0.8580     1.0000     0.1420     0.9593     0.9593     0.0000
 96 H      0.8586     1.0000     0.1414     0.9604     0.9604    -0.0000
 97 H      0.8993     1.0000     0.1007     1.0062     1.0062     0.0000
 98 H      0.8458     1.0000     0.1542     0.9646     0.9646     0.0000
 99 H      0.8547     1.0000     0.1453     0.9667     0.9667     0.0000
100 H      0.8529     1.0000     0.1471     0.9676     0.9676     0.0000
101 H      0.8783     1.0000     0.1217     0.9883     0.9883     0.0000
102 H      0.8532     1.0000     0.1468     0.9576     0.9576     0.0000
103 H      0.8813     1.0000     0.1187     0.9827     0.9827    -0.0000
104 H      0.8721     1.0000     0.1279     0.9664     0.9664    -0.0000
105 H      0.8725     1.0000     0.1275     0.9801     0.9801    -0.0000
106 H      0.8605     1.0000     0.1395     0.9651     0.9651    -0.0000
107 H      0.8992     1.0000     0.1008     0.9805     0.9805    -0.0000
108 H      0.9064     1.0000     0.0936     0.9734     0.9734    -0.0000
109 H      0.8881     1.0000     0.1119     0.9663     0.9663     0.0000
110 H      0.9109     1.0000     0.0891     0.9755     0.9755    -0.0000
111 H      0.9138     1.0000     0.0862     0.9770     0.9770     0.0000
112 H      0.9207     1.0000     0.0793     0.9796     0.9796     0.0000
113 H      0.9612     1.0000     0.0388     0.9756     0.9756    -0.0000
114 H      0.8731     1.0000     0.1269     0.9688     0.9688    -0.0000
115 H      0.8950     1.0000     0.1050     0.9777     0.9777     0.0000
116 H      0.8746     1.0000     0.1254     0.9685     0.9685     0.0000
117 H      0.9163     1.0000     0.0837     0.9766     0.9766    -0.0000
118 H      0.9227     1.0000     0.0773     0.9789     0.9789    -0.0000
119 H      0.8982     1.0000     0.1018     0.9711     0.9711     0.0000
120 H      0.9238     1.0000     0.0762     0.9739     0.9739     0.0000
121 H      0.9169     1.0000     0.0831     0.9766     0.9766    -0.0000
122 H      0.9233     1.0000     0.0767     0.9791     0.9791     0.0000
123 H      0.9631     1.0000     0.0369     0.9757     0.9757     0.0000
124 H      0.8739     1.0000     0.1261     0.9684     0.9684    -0.0000
125 H      0.8957     1.0000     0.1043     0.9779     0.9779    -0.0000
126 H      0.8743     1.0000     0.1257     0.9686     0.9686    -0.0000
127 H      0.9168     1.0000     0.0832     0.9762     0.9762     0.0000
128 H      0.9230     1.0000     0.0770     0.9788     0.9788     0.0000
129 H      0.8959     1.0000     0.1041     0.9690     0.9690     0.0000
130 H      0.9243     1.0000     0.0757     0.9733     0.9733     0.0000
131 H      0.9143     1.0000     0.0857     0.9738     0.9738     0.0000
132 H      0.9212     1.0000     0.0788     0.9801     0.9801     0.0000
133 H      0.9505     1.0000     0.0495     0.9691     0.9691    -0.0000
134 H      0.8823     1.0000     0.1177     0.9696     0.9696    -0.0000
135 H      0.8940     1.0000     0.1060     0.9789     0.9789     0.0000
136 H      0.8728     1.0000     0.1272     0.9686     0.9686    -0.0000
137 H      0.8810     1.0000     0.1190     0.9701     0.9701    -0.0000
138 H      0.8832     1.0000     0.1168     0.9729     0.9729    -0.0000
139 H      0.8942     1.0000     0.1058     0.9795     0.9795     0.0000

  Mayer bond orders larger than 0.100000
B(  0-Mg,  5-N ) :   0.4280 B(  0-Mg, 16-N ) :   0.5655 B(  0-Mg, 25-N ) :   0.4307 
B(  0-Mg, 33-N ) :   0.5801 B(  1-C ,  5-N ) :   0.1506 B(  1-C ,  6-C ) :   1.2781 
B(  1-C , 37-C ) :   1.1704 B(  1-C , 41-C ) :   0.9907 B(  2-C ,  9-C ) :   1.4628 
B(  2-C , 17-C ) :   1.1502 B(  2-C , 66-H ) :   0.9733 B(  3-C , 20-C ) :   1.2746 
B(  3-C , 26-C ) :   1.3742 B(  3-C , 67-H ) :   0.9570 B(  4-C , 29-C ) :   1.3750 
B(  4-C , 34-C ) :   1.2051 B(  4-C , 68-H ) :   1.0103 B(  5-N ,  6-C ) :   1.0541 
B(  5-N ,  9-C ) :   1.1952 B(  6-C ,  7-C ) :   1.0952 B(  7-C ,  8-C ) :   0.9874 
B(  7-C , 11-C ) :   0.9019 B(  7-C , 69-H ) :   0.8921 B(  8-C ,  9-C ) :   1.0382 
B(  8-C , 10-C ) :   0.8959 B(  8-C , 70-H ) :   0.9060 B( 10-C , 71-H ) :   0.9635 
B( 10-C , 72-H ) :   0.9679 B( 10-C , 73-H ) :   0.9633 B( 11-C , 12-C ) :   1.0747 
B( 11-C , 74-H ) :   0.9297 B( 11-C , 75-H ) :   0.9351 B( 12-C , 13-C ) :   1.0350 
B( 12-C , 76-H ) :   0.8881 B( 12-C , 77-H ) :   0.9260 B( 13-C , 14-O ) :   1.9412 
B( 13-C , 15-O ) :   1.2399 B( 15-O , 46-C ) :   0.8651 B( 16-N , 17-C ) :   1.1544 
B( 16-N , 20-C ) :   1.1799 B( 17-C , 18-C ) :   1.2520 B( 18-C , 19-C ) :   1.4479 
B( 18-C , 21-C ) :   0.9745 B( 19-C , 20-C ) :   1.1926 B( 19-C , 22-C ) :   1.0035 
B( 21-C , 78-H ) :   0.9704 B( 21-C , 79-H ) :   0.9541 B( 21-C , 80-H ) :   0.9519 
B( 22-C , 23-O ) :   1.9574 B( 22-C , 24-C ) :   1.0730 B( 24-C , 81-H ) :   0.9512 
B( 24-C , 82-H ) :   0.9431 B( 24-C , 83-H ) :   0.9280 B( 25-N , 26-C ) :   1.1943 
B( 25-N , 29-C ) :   1.1770 B( 26-C , 27-C ) :   1.0373 B( 27-C , 28-C ) :   0.9973 
B( 27-C , 30-C ) :   0.9053 B( 27-C , 84-H ) :   0.9093 B( 28-C , 29-C ) :   1.0370 
B( 28-C , 31-C ) :   0.9339 B( 28-C , 85-H ) :   0.8976 B( 30-C , 86-H ) :   0.9631 
B( 30-C , 87-H ) :   0.9677 B( 30-C , 88-H ) :   0.9660 B( 31-C , 32-C ) :   1.0350 
B( 31-C , 89-H ) :   0.9389 B( 31-C , 90-H ) :   0.9382 B( 32-C , 91-H ) :   0.9571 
B( 32-C , 92-H ) :   0.9645 B( 32-C , 93-H ) :   0.9645 B( 33-N , 34-C ) :   1.1266 
B( 33-N , 37-C ) :   1.1818 B( 34-C , 35-C ) :   1.2836 B( 35-C , 36-C ) :   1.4169 
B( 35-C , 38-C ) :   0.9682 B( 36-C , 37-C ) :   1.1710 B( 36-C , 39-C ) :   0.9882 
B( 36-C , 40-O ) :  -0.1372 B( 38-C , 94-H ) :   0.9871 B( 38-C , 95-H ) :   0.9611 
B( 38-C , 96-H ) :   0.9645 B( 39-C , 40-O ) :   2.2072 B( 39-C , 41-C ) :   0.9208 
B( 41-C , 42-C ) :   0.9402 B( 41-C , 97-H ) :   0.8687 B( 42-C , 43-O ) :   1.9721 
B( 42-C , 44-O ) :   1.2180 B( 44-O , 45-C ) :   0.9093 B( 45-C , 98-H ) :   0.9628 
B( 45-C , 99-H ) :   0.9652 B( 45-C ,100-H ) :   0.9652 B( 46-C , 47-C ) :   1.0201 
B( 46-C ,101-H ) :   0.9432 B( 46-C ,102-H ) :   0.9490 B( 47-C , 48-C ) :   1.8671 
B( 47-C ,103-H ) :   0.9466 B( 48-C , 49-C ) :   1.0002 B( 48-C , 50-C ) :   0.9834 
B( 49-C ,104-H ) :   0.9529 B( 49-C ,105-H ) :   0.9601 B( 49-C ,106-H ) :   0.9469 
B( 50-C , 51-C ) :   1.0297 B( 50-C ,107-H ) :   0.9372 B( 50-C ,108-H ) :   0.9332 
B( 51-C , 52-C ) :   1.0540 B( 51-C ,109-H ) :   0.9531 B( 51-C ,110-H ) :   0.9428 
B( 52-C , 53-C ) :   1.0259 B( 52-C ,111-H ) :   0.9378 B( 52-C ,112-H ) :   0.9313 
B( 53-C , 54-C ) :   0.9533 B( 53-C , 55-C ) :   1.0303 B( 53-C ,113-H ) :   0.9236 
B( 54-C ,114-H ) :   0.9688 B( 54-C ,115-H ) :   0.9621 B( 54-C ,116-H ) :   0.9684 
B( 55-C , 56-C ) :   1.0732 B( 55-C ,117-H ) :   0.9383 B( 55-C ,118-H ) :   0.9325 
B( 56-C , 57-C ) :   1.0741 B( 56-C ,119-H ) :   0.9468 B( 56-C ,120-H ) :   0.9310 
B( 57-C , 58-C ) :   1.0309 B( 57-C ,121-H ) :   0.9384 B( 57-C ,122-H ) :   0.9320 
B( 58-C , 59-C ) :   0.9516 B( 58-C , 60-C ) :   1.0298 B( 58-C ,123-H ) :   0.9226 
B( 59-C ,124-H ) :   0.9685 B( 59-C ,125-H ) :   0.9623 B( 59-C ,126-H ) :   0.9686 
B( 60-C , 61-C ) :   1.0690 B( 60-C ,127-H ) :   0.9391 B( 60-C ,128-H ) :   0.9327 
B( 61-C , 62-C ) :   1.0585 B( 61-C ,129-H ) :   0.9510 B( 61-C ,130-H ) :   0.9305 
B( 62-C , 63-C ) :   1.0173 B( 62-C ,131-H ) :   0.9427 B( 62-C ,132-H ) :   0.9425 
B( 63-C , 64-C ) :   0.9854 B( 63-C , 65-C ) :   0.9883 B( 63-C ,133-H ) :   0.9311 
B( 64-C ,134-H ) :   0.9659 B( 64-C ,135-H ) :   0.9646 B( 64-C ,136-H ) :   0.9705 
B( 65-C ,137-H ) :   0.9702 B( 65-C ,138-H ) :   0.9684 B( 65-C ,139-H ) :   0.9655 


-------
TIMINGS
-------

Total SCF time: 0 days 0 hours 24 min 10 sec 

Total time                  ....    1450.480 sec
Sum of individual times     ....    1390.907 sec  ( 95.9%)

SCF preparation             ....      12.702 sec  (  0.9%)
Fock matrix formation       ....    1275.774 sec  ( 88.0%)
  Startup                   ....       0.682 sec  (  0.1% of F)
  Split-RI-J                ....     341.891 sec  ( 26.8% of F)
  XC integration            ....     572.119 sec  ( 44.8% of F)
    XC Preparation          ....       0.000 sec  (  0.0% of XC)
    Basis function eval.    ....      88.368 sec  ( 15.4% of XC)
    Density eval.           ....     259.428 sec  ( 45.3% of XC)
    XC-Functional eval.     ....       8.516 sec  (  1.5% of XC)
    XC-Potential eval.      ....     201.747 sec  ( 35.3% of XC)
  CPCM terms                ....     424.750 sec  ( 33.3% of F)
Diagonalization             ....       0.000 sec  (  0.0%)
Density matrix formation    ....       6.184 sec  (  0.4%)
Total Energy calculation    ....       2.713 sec  (  0.2%)
Population analysis         ....       3.181 sec  (  0.2%)
Orbital Transformation      ....      10.819 sec  (  0.7%)
Orbital Orthonormalization  ....       0.000 sec  (  0.0%)
DIIS solution               ....      46.037 sec  (  3.2%)
SOSCF solution              ....      27.219 sec  (  1.9%)
Finished LeanSCF after 1459.6 sec

Maximum memory used throughout the entire LEANSCF-calculation: 703.7 MB


           ************************************************************
           *        Program running with 4 parallel MPI-processes     *
           *              working on a common directory               *
           ************************************************************

------------------------------------------------------------------------------
                         ORCA PROPERTY INTEGRAL CALCULATIONS
------------------------------------------------------------------------------

GBWName                                   ... tddft.gbw
Number of atoms                           ...    140
Number of basis functions                 ...   2491
Max core memory                           ...   2200 MB

Dipole integrals                          ... YES
Quadrupole integrals                      ...  NO
Linear momentum integrals                 ... YES
Angular momentum integrals                ... YES
Higher moments length integrals           ...  NO
Higher moments velocity integrals         ...  NO
Kinetic energy integrals                  ...  NO
GIAO right hand sides                     ...  NO
GIAO dipole derivative integrals          ...  NO
SOC integrals                             ...  NO
EPR diamagnetic integrals (GIAO)          ...  NO
EPR gauge integrals                       ...  NO
Field gradient integrals                  ...  NO (   0 nuclei)
Spin-dipole/Fermi contact integrals       ...  NO (   0 nuclei)
Contact density integrals                 ...  NO (   0 nuclei)
Nucleus-orbit integrals                   ...  NO (   0 nuclei)
Geometric perturbations                   ...  NO ( 140 nuclei)

Choice of electric origin   ... Center of mass
Position of electric origin ... ( 74.6342, 99.1885, 41.9481) 
Choice of magnetic origin   ... GIAO
Position of magnetic origin ... (  0.0000,  0.0000,  0.0000) 

Calculating integrals                     ... Electric Dipole (Length)     done (  0.4 sec)
Calculating integrals                     ... Linear Momentum              done (  0.9 sec)
Calculating integrals                     ... Angular Momentum  (ElOri)    done (  0.9 sec)

Property integrals calculated in   2.3 sec

Maximum memory used throughout the entire PROPINT-calculation: 507.9 MB


           ************************************************************
           *        Program running with 4 parallel MPI-processes     *
           *              working on a common directory               *
           ************************************************************
------------------------------------------------------------------------------
                          ORCA TD-DFT CALCULATION
------------------------------------------------------------------------------

Input orbitals are from        ... tddft.gbw
CI-vector output               ... tddft.cis
Solver                         ... FN-2001
Tamm-Dancoff approximation     ... deactivated
RPA-Integral strategy          ... AO-integrals
Integral handling              ... AO integral Direct
Max. core memory used          ... 2200 MB
Reference state                ... RHF
Generation of triplets         ... off
Follow IRoot                   ... off
Number of operators            ... 1
Orbital ranges used for CIS calculation:
 Operator 0:  Orbitals  66...245  to 246...2490
XAS localization array:
 Operator 0:  Orbitals  -1... -1

-------------------
XC-INTEGRATION GRID
-------------------

General Integration Accuracy     IntAcc      ... 3.467
Radial Grid Type                 RadialGrid  ... OptM3 with GC (2021)
Angular Grid (max. ang.)         AngularGrid ... 3 (Lebedev-194)
Angular grid pruning method      GridPruning ... 4 (adaptive)
Weight generation scheme         WeightScheme... mBecke (2022)
Basis function cutoff            BFCut       ... 1.0000e-11
Integration weight cutoff        WCut        ... 1.0000e-14
Partially contracted basis set               ... off
Rotationally invariant grid construction     ... off
Angular grids for H and He will be reduced by one unit

Total number of grid points                  ...   233979
Total number of batches                      ...     3734
Average number of points per batch           ...       62
Average number of grid points per atom       ...     1671

---------------
TD-DFT XC SETUP
---------------

DFT calculation                         ... on
Name of the grid file                   ... tddft.grid_cis.tmp
RI-approximation                        ... on
Aux-basis dimension                     ... 0
Exchange functional (TD-DFT)            ... TPSS
Correlation functional (TD-DFT)         ... TPSS

Building densities             ... done
Calculating rho(r) on the grid ... done
Building xc-kernel on the grid ... done
                    *** TD-DFT CALCULATION INITIALIZED ***

---------------------------------
    LR-CPCM (non-equilibrium)
---------------------------------

Setting up CPCM data             ... done

-------------------
RPA-DIAGONALIZATION
-------------------

Dimension of the (A+B)(A-B) eigenvalue problem ... 404100
Number of roots to be determined               ...     30
Maximum size of the expansion space            ...    900
Convergence tolerance for the residual         ...    2.500e-07
Convergence tolerance for the energies         ...    2.500e-07
Orthogonality tolerance                        ...    1.000e-14
Constructing the preconditioner                ... o.k.
Building the initial guess                     ... o.k.
Number of trial vectors determined             ...    900


                       ****Iteration    0****
   Time for iteration     :  TOTAL=2779.0 TRAFO=48.1 RIJ=493.5 XC=862.4 CPCM=1355.9
   Size of expansion space: 90
   Lowest Energy          :     0.073144053811
   Maximum Energy change  :     0.149811216130 (vector 29)
   Maximum residual norm  :     0.025580505748

                       ****Iteration    1****
   Time for iteration     :  TOTAL=1065.2 TRAFO=16.5 RIJ=195.9 XC=363.3 CPCM=483.1
   Size of expansion space: 120
   Lowest Energy          :     0.063958370063
   Maximum Energy change  :     0.009185683748 (vector 0)
   Maximum residual norm  :     0.001905846982

                       ****Iteration    2****
   Time for iteration     :  TOTAL=1117.5 TRAFO=17.2 RIJ=195.1 XC=391.2 CPCM=506.4
   Size of expansion space: 150
   Lowest Energy          :     0.063645399227
   Maximum Energy change  :     0.000719523406 (vector 16)
   Maximum residual norm  :     0.000288473539

                       ****Iteration    3****
   Time for iteration     :  TOTAL=1138.8 TRAFO=17.2 RIJ=201.6 XC=404.6 CPCM=508.2
   Size of expansion space: 180
   Lowest Energy          :     0.063623171176
   Maximum Energy change  :     0.000084810262 (vector 16)
   Maximum residual norm  :     0.000097934181

                       ****Iteration    4****
   Time for iteration     :  TOTAL=1127.6 TRAFO=16.7 RIJ=200.7 XC=396.8 CPCM=506.8
   Size of expansion space: 210
   Lowest Energy          :     0.063610504048
   Maximum Energy change  :     0.000056342105 (vector 16)
   Maximum residual norm  :     0.000026347226

                       ****Iteration    5****
   Time for iteration     :  TOTAL=1147.6 TRAFO=16.7 RIJ=202.8 XC=402.9 CPCM=518.9
   Size of expansion space: 240
   Lowest Energy          :     0.063609355231
   Maximum Energy change  :     0.000008087654 (vector 16)
   Maximum residual norm  :     0.000002467631

                       ****Iteration    6****
   Time for iteration     :  TOTAL=1142.6 TRAFO=16.8 RIJ=201.9 XC=406.7 CPCM=510.8
   Size of expansion space: 270
   Lowest Energy          :     0.063609267002
   Maximum Energy change  :     0.000001739863 (vector 21)
   Maximum residual norm  :     0.000001073279

                       ****Iteration    7****
   Time for iteration     :  TOTAL=1163.1 TRAFO=16.9 RIJ=204.4 XC=418.4 CPCM=516.8
   Size of expansion space: 300
   Lowest Energy          :     0.063609239531
   Maximum Energy change  :     0.000000379064 (vector 16)
   Maximum residual norm  :     0.000000115428

      *** CONVERGENCE OF RESIDUAL NORM REACHED ***

Storing the converged CI vectors               ... tddft.cis1

                 *** DAVIDSON DONE ***

Total time for solving the RPA problem: 11075.189sec

--------------------------------
TD-DFT EXCITED STATES (SINGLETS)
--------------------------------

the weight of the individual excitations are printed if larger than 1.0e-02

STATE  1:  E=   0.063609 au      1.731 eV    13960.6 cm**-1 <S**2> =   0.000000 Mult 1
   244a -> 247a  :     0.020655 
   244a -> 248a  :     0.016191 
   245a -> 246a  :     0.950255 

STATE  2:  E=   0.075361 au      2.051 eV    16539.8 cm**-1 <S**2> =   0.000000 Mult 1
   244a -> 246a  :     0.887420 
   245a -> 247a  :     0.051532 
   245a -> 248a  :     0.027448 

STATE  3:  E=   0.088179 au      2.399 eV    19353.0 cm**-1 <S**2> =   0.000000 Mult 1
   243a -> 246a  :     0.993619 

STATE  4:  E=   0.094386 au      2.568 eV    20715.3 cm**-1 <S**2> =   0.000000 Mult 1
   242a -> 246a  :     0.983946 

STATE  5:  E=   0.095323 au      2.594 eV    20921.0 cm**-1 <S**2> =   0.000000 Mult 1
   240a -> 246a  :     0.017376 
   241a -> 246a  :     0.974598 

STATE  6:  E=   0.101865 au      2.772 eV    22356.8 cm**-1 <S**2> =   0.000000 Mult 1
   240a -> 246a  :     0.562056 
   245a -> 247a  :     0.319447 
   245a -> 248a  :     0.060692 

STATE  7:  E=   0.102787 au      2.797 eV    22559.2 cm**-1 <S**2> =   0.000000 Mult 1
   240a -> 246a  :     0.394871 
   245a -> 247a  :     0.438651 
   245a -> 248a  :     0.097344 

STATE  8:  E=   0.108342 au      2.948 eV    23778.3 cm**-1 <S**2> =   0.000000 Mult 1
   239a -> 246a  :     0.352607 
   244a -> 247a  :     0.027530 
   244a -> 248a  :     0.015109 
   244a -> 249a  :     0.018224 
   245a -> 247a  :     0.049287 
   245a -> 248a  :     0.478721 
   245a -> 249a  :     0.030157 

STATE  9:  E=   0.109569 au      2.982 eV    24047.7 cm**-1 <S**2> =   0.000000 Mult 1
   239a -> 246a  :     0.595161 
   244a -> 246a  :     0.021309 
   244a -> 247a  :     0.010805 
   244a -> 249a  :     0.016221 
   245a -> 247a  :     0.040879 
   245a -> 248a  :     0.197961 
   245a -> 249a  :     0.083441 

STATE 10:  E=   0.113212 au      3.081 eV    24847.1 cm**-1 <S**2> =   0.000000 Mult 1
   238a -> 246a  :     0.068309 
   244a -> 247a  :     0.601573 
   244a -> 248a  :     0.252247 
   244a -> 249a  :     0.011329 
   245a -> 248a  :     0.040821 

STATE 11:  E=   0.118898 au      3.235 eV    26095.1 cm**-1 <S**2> =   0.000000 Mult 1
   236a -> 246a  :     0.027858 
   238a -> 246a  :     0.258014 
   244a -> 247a  :     0.116221 
   244a -> 248a  :     0.108548 
   244a -> 249a  :     0.067691 
   245a -> 247a  :     0.024476 
   245a -> 248a  :     0.014046 
   245a -> 249a  :     0.339191 

STATE 12:  E=   0.119087 au      3.241 eV    26136.6 cm**-1 <S**2> =   0.000000 Mult 1
   237a -> 246a  :     0.977478 
   245a -> 249a  :     0.012807 

STATE 13:  E=   0.120317 au      3.274 eV    26406.5 cm**-1 <S**2> =   0.000000 Mult 1
   236a -> 246a  :     0.108688 
   237a -> 246a  :     0.012542 
   238a -> 246a  :     0.473058 
   244a -> 248a  :     0.055628 
   245a -> 249a  :     0.273629 

STATE 14:  E=   0.123885 au      3.371 eV    27189.7 cm**-1 <S**2> =   0.000000 Mult 1
   233a -> 246a  :     0.012368 
   236a -> 246a  :     0.836730 
   238a -> 246a  :     0.109409 
   244a -> 247a  :     0.010346 

STATE 15:  E=   0.124206 au      3.380 eV    27260.0 cm**-1 <S**2> =   0.000000 Mult 1
   233a -> 246a  :     0.029519 
   234a -> 246a  :     0.085551 
   235a -> 246a  :     0.875052 

STATE 16:  E=   0.124534 au      3.389 eV    27332.0 cm**-1 <S**2> =   0.000000 Mult 1
   234a -> 246a  :     0.911570 
   235a -> 246a  :     0.080984 

STATE 17:  E=   0.130780 au      3.559 eV    28702.9 cm**-1 <S**2> =   0.000000 Mult 1
   238a -> 246a  :     0.020031 
   240a -> 247a  :     0.018053 
   240a -> 248a  :     0.010608 
   244a -> 246a  :     0.021085 
   244a -> 247a  :     0.144661 
   244a -> 248a  :     0.465961 
   244a -> 249a  :     0.012445 
   245a -> 246a  :     0.019519 
   245a -> 247a  :     0.020254 
   245a -> 248a  :     0.019236 
   245a -> 249a  :     0.165095 
   245a -> 250a  :     0.015012 

STATE 18:  E=   0.135097 au      3.676 eV    29650.3 cm**-1 <S**2> =   0.000000 Mult 1
   233a -> 246a  :     0.090936 
   245a -> 250a  :     0.882477 

STATE 19:  E=   0.137162 au      3.732 eV    30103.6 cm**-1 <S**2> =   0.000000 Mult 1
   233a -> 246a  :     0.018644 
   243a -> 247a  :     0.035762 
   244a -> 247a  :     0.018089 
   244a -> 248a  :     0.019695 
   244a -> 249a  :     0.279211 
   245a -> 251a  :     0.592141 

STATE 20:  E=   0.137906 au      3.753 eV    30266.8 cm**-1 <S**2> =   0.000000 Mult 1
   233a -> 246a  :     0.012122 
   243a -> 247a  :     0.697036 
   244a -> 249a  :     0.078496 
   245a -> 251a  :     0.180787 

STATE 21:  E=   0.138686 au      3.774 eV    30438.2 cm**-1 <S**2> =   0.000000 Mult 1
   233a -> 246a  :     0.108920 
   240a -> 247a  :     0.012313 
   243a -> 247a  :     0.188260 
   244a -> 247a  :     0.018218 
   244a -> 249a  :     0.338263 
   245a -> 248a  :     0.019743 
   245a -> 251a  :     0.215504 
   245a -> 252a  :     0.024316 

STATE 22:  E=   0.139378 au      3.793 eV    30590.0 cm**-1 <S**2> =   0.000000 Mult 1
   233a -> 246a  :     0.624600 
   235a -> 246a  :     0.022165 
   236a -> 246a  :     0.012071 
   243a -> 247a  :     0.061163 
   244a -> 249a  :     0.096152 
   244a -> 253a  :     0.014713 
   245a -> 247a  :     0.012884 
   245a -> 250a  :     0.075772 
   245a -> 255a  :     0.011064 

STATE 23:  E=   0.140581 au      3.825 eV    30853.9 cm**-1 <S**2> =   0.000000 Mult 1
   231a -> 246a  :     0.042305 
   232a -> 246a  :     0.949346 

STATE 24:  E=   0.142411 au      3.875 eV    31255.6 cm**-1 <S**2> =   0.000000 Mult 1
   231a -> 246a  :     0.444714 
   232a -> 246a  :     0.018234 
   243a -> 248a  :     0.525622 

STATE 25:  E=   0.142475 au      3.877 eV    31269.7 cm**-1 <S**2> =   0.000000 Mult 1
   231a -> 246a  :     0.505615 
   232a -> 246a  :     0.021655 
   243a -> 248a  :     0.457942 

STATE 26:  E=   0.143575 au      3.907 eV    31511.1 cm**-1 <S**2> =   0.000000 Mult 1
   242a -> 247a  :     0.481637 
   245a -> 252a  :     0.501378 

STATE 27:  E=   0.143655 au      3.909 eV    31528.6 cm**-1 <S**2> =   0.000000 Mult 1
   240a -> 247a  :     0.012090 
   241a -> 247a  :     0.046417 
   242a -> 247a  :     0.478440 
   245a -> 252a  :     0.442871 

STATE 28:  E=   0.144159 au      3.923 eV    31639.3 cm**-1 <S**2> =   0.000000 Mult 1
   240a -> 247a  :     0.032577 
   241a -> 247a  :     0.911286 
   241a -> 248a  :     0.012615 
   242a -> 247a  :     0.024130 
   245a -> 252a  :     0.012729 

STATE 29:  E=   0.145578 au      3.961 eV    31950.7 cm**-1 <S**2> =   0.000000 Mult 1
   230a -> 246a  :     0.998728 

STATE 30:  E=   0.149150 au      4.059 eV    32734.6 cm**-1 <S**2> =   0.000000 Mult 1
   242a -> 248a  :     0.988546 


-----------------------------
 TD-DFT-EXCITATION SPECTRA
-----------------------------

Center of mass = ( 74.6342, 99.1885, 41.9481)
Generating RPA transition densities
 done

----------------------------------------------------------------------------------------------------
                     ABSORPTION SPECTRUM VIA TRANSITION ELECTRIC DIPOLE MOMENTS    
----------------------------------------------------------------------------------------------------
     Transition      Energy     Energy  Wavelength fosc(D2)      D2        DX        DY        DZ   
                      (eV)      (cm-1)    (nm)                 (au**2)    (au)      (au)      (au)  
----------------------------------------------------------------------------------------------------
  0-1A  ->  1-1A    1.730895   13960.6   716.3   0.482393205  11.37555  -2.96736  -1.42653   0.73167
  0-1A  ->  2-1A    2.050670   16539.8   604.6   0.148341756   2.95263  -1.16689   1.20949  -0.35795
  0-1A  ->  3-1A    2.399466   19353.0   516.7   0.001670946   0.02842  -0.07398   0.14369  -0.04801
  0-1A  ->  4-1A    2.568365   20715.3   482.7   0.000105303   0.00167   0.03136   0.02613  -0.00264
  0-1A  ->  5-1A    2.593874   20921.0   478.0   0.000254028   0.00400  -0.02736   0.03348  -0.04613
  0-1A  ->  6-1A    2.771888   22356.8   447.3   0.023905868   0.35202   0.46641  -0.34424   0.12643
  0-1A  ->  7-1A    2.796989   22559.2   443.3   0.029759395   0.43429  -0.43117   0.46250  -0.18568
  0-1A  ->  8-1A    2.948128   23778.3   420.6   0.033604534   0.46526  -0.06619   0.66748  -0.12387
  0-1A  ->  9-1A    2.981534   24047.7   415.8   0.129865281   1.77785  -0.66718   1.11701  -0.29155
  0-1A  -> 10-1A    3.080647   24847.1   402.5   0.044031947   0.58340   0.75718   0.01540  -0.09925
  0-1A  -> 11-1A    3.235383   26095.1   383.2   0.295317493   3.72568  -1.90084   0.33025  -0.05832
  0-1A  -> 12-1A    3.240525   26136.6   382.6   0.005274163   0.06643  -0.25405   0.04208  -0.01105
  0-1A  -> 13-1A    3.273985   26406.5   378.7   0.080872145   1.00824   0.95898  -0.29421   0.04507
  0-1A  -> 14-1A    3.371096   27189.7   367.8   0.002226787   0.02696  -0.03029  -0.12621   0.10058
  0-1A  -> 15-1A    3.379811   27260.0   366.8   0.000666041   0.00804   0.03441   0.08238   0.00852
  0-1A  -> 16-1A    3.388733   27332.0   365.9   0.000219402   0.00264   0.01583   0.04887  -0.00197
  0-1A  -> 17-1A    3.558711   28702.9   348.4   0.694743660   7.96845  -0.87610  -2.52748   0.90152
  0-1A  -> 18-1A    3.676170   29650.3   337.3   0.006999455   0.07772  -0.24994   0.11113  -0.05382
  0-1A  -> 19-1A    3.732368   30103.6   332.2   0.200566779   2.19339   1.45946  -0.17080  -0.18492
  0-1A  -> 20-1A    3.752607   30266.8   330.4   0.041005556   0.44602   0.66589  -0.01960   0.04712
  0-1A  -> 21-1A    3.773851   30438.2   328.5   0.305637309   3.30570  -1.77764   0.38034  -0.03213
  0-1A  -> 22-1A    3.792671   30590.0   326.9   0.060905376   0.65547  -0.69504   0.39499  -0.12795
  0-1A  -> 23-1A    3.825401   30853.9   324.1   0.000528368   0.00564   0.06640   0.02838  -0.02059
  0-1A  -> 24-1A    3.875203   31255.6   319.9   0.001497354   0.01577  -0.01206   0.12200  -0.02724
  0-1A  -> 25-1A    3.876953   31269.7   319.8   0.013558796   0.14275   0.32550   0.16916  -0.09046
  0-1A  -> 26-1A    3.906875   31511.1   317.3   0.006219045   0.06497  -0.23619  -0.05732  -0.07683
  0-1A  -> 27-1A    3.909046   31528.6   317.2   0.011155858   0.11649  -0.30911   0.07527  -0.12356
  0-1A  -> 28-1A    3.922776   31639.3   316.1   0.003241858   0.03373   0.09987  -0.14910   0.03909
  0-1A  -> 29-1A    3.961387   31950.7   313.0   0.000149924   0.00154  -0.03846  -0.00639   0.00500
  0-1A  -> 30-1A    4.058568   32734.6   305.5   0.002487263   0.02501  -0.07462   0.13938  -0.00436

----------------------------------------------------------------------------------------------------
                     ABSORPTION SPECTRUM VIA TRANSITION VELOCITY DIPOLE MOMENTS    
----------------------------------------------------------------------------------------------------
     Transition      Energy     Energy  Wavelength fosc(P2)      P2        PX        PY        PZ   
                      (eV)      (cm-1)    (nm)                 (au**2)    (au)      (au)      (au)  
----------------------------------------------------------------------------------------------------
  0-1A  ->  1-1A    1.730895   13960.6   716.3   0.461617656   0.04404   0.18470   0.08867  -0.04547
  0-1A  ->  2-1A    2.050670   16539.8   604.6   0.142716907   0.01613   0.08604  -0.08960   0.02649
  0-1A  ->  3-1A    2.399466   19353.0   516.7   0.001578470   0.00021   0.00654  -0.01205   0.00458
  0-1A  ->  4-1A    2.568365   20715.3   482.7   0.000099710   0.00001  -0.00289  -0.00238   0.00029
  0-1A  ->  5-1A    2.593874   20921.0   478.0   0.000231926   0.00003   0.00245  -0.00302   0.00425
  0-1A  ->  6-1A    2.771888   22356.8   447.3   0.022897837   0.00350  -0.04640   0.03445  -0.01259
  0-1A  ->  7-1A    2.796989   22559.2   443.3   0.028576793   0.00441   0.04328  -0.04676   0.01862
  0-1A  ->  8-1A    2.948128   23778.3   420.6   0.032556160   0.00529   0.00719  -0.07115   0.01329
  0-1A  ->  9-1A    2.981534   24047.7   415.8   0.124390369   0.02044   0.07128  -0.11992   0.03133
  0-1A  -> 10-1A    3.080647   24847.1   402.5   0.041856949   0.00711  -0.08357  -0.00153   0.01105
  0-1A  -> 11-1A    3.235383   26095.1   383.2   0.281720019   0.05024   0.22082  -0.03795   0.00647
  0-1A  -> 12-1A    3.240525   26136.6   382.6   0.005016481   0.00090   0.02953  -0.00469   0.00136
  0-1A  -> 13-1A    3.273985   26406.5   378.7   0.077277659   0.01395  -0.11292   0.03420  -0.00519
  0-1A  -> 14-1A    3.371096   27189.7   367.8   0.002168191   0.00040   0.00366   0.01554  -0.01217
  0-1A  -> 15-1A    3.379811   27260.0   366.8   0.000613043   0.00011  -0.00419  -0.00979  -0.00091
  0-1A  -> 16-1A    3.388733   27332.0   365.9   0.000206442   0.00004  -0.00192  -0.00590   0.00027
  0-1A  -> 17-1A    3.558711   28702.9   348.4   0.665131060   0.13048   0.11209   0.32349  -0.11518
  0-1A  -> 18-1A    3.676170   29650.3   337.3   0.006583156   0.00133   0.03291  -0.01423   0.00694
  0-1A  -> 19-1A    3.732368   30103.6   332.2   0.192563030   0.03962  -0.19611   0.02322   0.02492
  0-1A  -> 20-1A    3.752607   30266.8   330.4   0.038959937   0.00806  -0.08951   0.00353  -0.00596
  0-1A  -> 21-1A    3.773851   30438.2   328.5   0.294438249   0.06125   0.24207  -0.05127   0.00485
  0-1A  -> 22-1A    3.792671   30590.0   326.9   0.058592864   0.01225   0.09526  -0.05349   0.01771
  0-1A  -> 23-1A    3.825401   30853.9   324.1   0.000506056   0.00011  -0.00914  -0.00382   0.00295
  0-1A  -> 24-1A    3.875203   31255.6   319.9   0.001417473   0.00030   0.00155  -0.01696   0.00357
  0-1A  -> 25-1A    3.876953   31269.7   319.8   0.013085612   0.00280  -0.04562  -0.02326   0.01320
  0-1A  -> 26-1A    3.906875   31511.1   317.3   0.005968762   0.00129   0.03324   0.00800   0.01079
  0-1A  -> 27-1A    3.909046   31528.6   317.2   0.010708450   0.00231   0.04352  -0.01063   0.01734
  0-1A  -> 28-1A    3.922776   31639.3   316.1   0.003140059   0.00068  -0.01412   0.02110  -0.00584
  0-1A  -> 29-1A    3.961387   31950.7   313.0   0.000145501   0.00003   0.00550   0.00089  -0.00083
  0-1A  -> 30-1A    4.058568   32734.6   305.5   0.002389826   0.00053   0.01100  -0.02033   0.00065

------------------------------------------------------------------------------------------
                     CD SPECTRUM VIA TRANSITION ELECTRIC DIPOLE MOMENTS    
------------------------------------------------------------------------------------------
     Transition      Energy     Energy  Wavelength    R        MX        MY        MZ   
                      (eV)      (cm-1)    (nm)   (1e40*cgs)   (au)      (au)      (au)  
------------------------------------------------------------------------------------------
  0-1A  ->  1-1A    1.730895   13960.6   716.3   15.08735   0.18649   0.12877   0.96365
  0-1A  ->  2-1A    2.050670   16539.8   604.6    7.05090  -0.09786  -0.10135   0.01834
  0-1A  ->  3-1A    2.399466   19353.0   516.7   -8.11085  -0.06629   0.04431  -0.12357
  0-1A  ->  4-1A    2.568365   20715.3   482.7    0.14527  -0.00757  -0.00272  -0.00012
  0-1A  ->  5-1A    2.593874   20921.0   478.0    1.70497   0.13519   0.01704   0.01059
  0-1A  ->  6-1A    2.771888   22356.8   447.3   -3.69322   0.06211   0.02095  -0.11013
  0-1A  ->  7-1A    2.796989   22559.2   443.3    4.24425  -0.03882   0.16316   0.54504
  0-1A  ->  8-1A    2.948128   23778.3   420.6   14.83551  -0.07324  -0.10663  -0.28143
  0-1A  ->  9-1A    2.981534   24047.7   415.8   15.65686  -0.12192  -0.11812  -0.05965
  0-1A  -> 10-1A    3.080647   24847.1   402.5  -18.68900  -0.07397  -0.23256  -0.99986
  0-1A  -> 11-1A    3.235383   26095.1   383.2  -12.72847  -0.04097  -0.01615   0.78112
  0-1A  -> 12-1A    3.240525   26136.6   382.6   -1.53863  -0.01959  -0.00594   0.13239
  0-1A  -> 13-1A    3.273985   26406.5   378.7    7.95179  -0.02309  -0.10176  -0.54718
  0-1A  -> 14-1A    3.371096   27189.7   367.8   11.10073   0.13342  -0.00800  -0.20397
  0-1A  -> 15-1A    3.379811   27260.0   366.8    4.36140  -0.11619  -0.05503  -0.08440
  0-1A  -> 16-1A    3.388733   27332.0   365.9    0.93370  -0.06233  -0.02142  -0.02692
  0-1A  -> 17-1A    3.558711   28702.9   348.4   60.43576   0.45247   0.29666   1.12922
  0-1A  -> 18-1A    3.676170   29650.3   337.3   -0.53883  -0.03641  -0.03391   0.07785
  0-1A  -> 19-1A    3.732368   30103.6   332.2    1.85357  -0.11044  -0.02321  -0.82898
  0-1A  -> 20-1A    3.752607   30266.8   330.4   37.10522  -0.08000   0.10293  -0.49693
  0-1A  -> 21-1A    3.773851   30438.2   328.5  -47.95626  -0.06280   0.03147   0.68099
  0-1A  -> 22-1A    3.792671   30590.0   326.9  -25.83825  -0.09164   0.13405   0.48326
  0-1A  -> 23-1A    3.825401   30853.9   324.1   -0.23012  -0.00174   0.00349  -0.02451
  0-1A  -> 24-1A    3.875203   31255.6   319.9   -2.78397  -0.06221   0.03948  -0.01241
  0-1A  -> 25-1A    3.876953   31269.7   319.8   -5.02682  -0.04600   0.01758  -0.25049
  0-1A  -> 26-1A    3.906875   31511.1   317.3   -1.36082  -0.02146  -0.01845   0.04218
  0-1A  -> 27-1A    3.909046   31528.6   317.2    0.05823  -0.02844  -0.02418   0.05743
  0-1A  -> 28-1A    3.922776   31639.3   316.1   -2.07694   0.14486   0.06410  -0.01294
  0-1A  -> 29-1A    3.961387   31950.7   313.0   -0.08315  -0.00078   0.00195   0.03181
  0-1A  -> 30-1A    4.058568   32734.6   305.5    0.90936   0.02851   0.00257   0.03662

------------------------------------------------------------------------------------------
                     CD SPECTRUM VIA TRANSITION VELOCITY DIPOLE MOMENTS    
------------------------------------------------------------------------------------------
     Transition      Energy     Energy  Wavelength    R        MX        MY        MZ   
                      (eV)      (cm-1)    (nm)   (1e40*cgs)   (au)      (au)      (au)  
------------------------------------------------------------------------------------------
  0-1A  ->  1-1A    1.730895   13960.6   716.3   15.19337   0.18649   0.12877   0.96365
  0-1A  ->  2-1A    2.050670   16539.8   604.6    7.17257  -0.09786  -0.10135   0.01834
  0-1A  ->  3-1A    2.399466   19353.0   516.7   -8.19479  -0.06629   0.04431  -0.12357
  0-1A  ->  4-1A    2.568365   20715.3   482.7    0.14153  -0.00757  -0.00272  -0.00012
  0-1A  ->  5-1A    2.593874   20921.0   478.0    1.60379   0.13519   0.01704   0.01059
  0-1A  ->  6-1A    2.771888   22356.8   447.3   -3.57952   0.06211   0.02095  -0.11013
  0-1A  ->  7-1A    2.796989   22559.2   443.3    3.83760  -0.03882   0.16316   0.54504
  0-1A  ->  8-1A    2.948128   23778.3   420.6   14.44845  -0.07324  -0.10663  -0.28143
  0-1A  ->  9-1A    2.981534   24047.7   415.8   15.51490  -0.12192  -0.11812  -0.05965
  0-1A  -> 10-1A    3.080647   24847.1   402.5  -18.78818  -0.07397  -0.23256  -0.99986
  0-1A  -> 11-1A    3.235383   26095.1   383.2  -13.40427  -0.04097  -0.01615   0.78112
  0-1A  -> 12-1A    3.240525   26136.6   382.6   -1.46821  -0.01959  -0.00594   0.13239
  0-1A  -> 13-1A    3.273985   26406.5   378.7    7.71586  -0.02309  -0.10176  -0.54718
  0-1A  -> 14-1A    3.371096   27189.7   367.8   10.83136   0.13342  -0.00800  -0.20397
  0-1A  -> 15-1A    3.379811   27260.0   366.8    4.18477  -0.11619  -0.05503  -0.08440
  0-1A  -> 16-1A    3.388733   27332.0   365.9    0.90332  -0.06233  -0.02142  -0.02692
  0-1A  -> 17-1A    3.558711   28702.9   348.4   59.90196   0.45247   0.29666   1.12922
  0-1A  -> 18-1A    3.676170   29650.3   337.3   -0.61205  -0.03641  -0.03391   0.07785
  0-1A  -> 19-1A    3.732368   30103.6   332.2    1.57507  -0.11044  -0.02321  -0.82898
  0-1A  -> 20-1A    3.752607   30266.8   330.4   35.85015  -0.08000   0.10293  -0.49693
  0-1A  -> 21-1A    3.773851   30438.2   328.5  -45.93858  -0.06280   0.03147   0.68099
  0-1A  -> 22-1A    3.792671   30590.0   326.9  -24.82457  -0.09164   0.13405   0.48326
  0-1A  -> 23-1A    3.825401   30853.9   324.1   -0.23376  -0.00174   0.00349  -0.02451
  0-1A  -> 24-1A    3.875203   31255.6   319.9   -2.68358  -0.06221   0.03948  -0.01241
  0-1A  -> 25-1A    3.876953   31269.7   319.8   -5.35276  -0.04600   0.01758  -0.25049
  0-1A  -> 26-1A    3.906875   31511.1   317.3   -1.33231  -0.02146  -0.01845   0.04218
  0-1A  -> 27-1A    3.909046   31528.6   317.2    0.04767  -0.02844  -0.02418   0.05743
  0-1A  -> 28-1A    3.922776   31639.3   316.1   -2.02039   0.14486   0.06410  -0.01294
  0-1A  -> 29-1A    3.961387   31950.7   313.0   -0.09414  -0.00078   0.00195   0.03181
  0-1A  -> 30-1A    4.058568   32734.6   305.5    0.90152   0.02851   0.00257   0.03662

Total run time:    11164.880 sec

           *** ORCA-CIS/TD-DFT FINISHED WITHOUT ERROR ***
-----------------------
CIS/TD-DFT TOTAL ENERGY
-----------------------

    E(SCF)  =  -3012.603208725 Eh
    DE(CIS) =      0.063609240 Eh (Root  1)
    ----------------------------- ---------
    E(tot)  =  -3012.539599485 Eh


Maximum memory used throughout the entire CIS-calculation: 2284.2 MB
=> NOW LEAVING ORCA_CIS

-------------------------   --------------------
FINAL SINGLE POINT ENERGY     -3012.539599485307
-------------------------   --------------------



           ************************************************************
           *        Program running with 4 parallel MPI-processes     *
           *              working on a common directory               *
           ************************************************************

------------------------------------------------------------------------------
                              ORCA PROPERTY CALCULATIONS
------------------------------------------------------------------------------

GBWName                                 ... tddft.gbw
Number of atoms                         ...    140
Number of basis functions               ...   2491
Max core memory                         ...   2200 MB

Electric properties:
Dipole moment                           ... YES
Quadrupole moment                       ...  NO
Static polarizability (Dipole/Dipole)   ...  NO
Static polarizability (Dipole/Quad.)    ...  NO
Static polarizability (Quad./Quad.)     ...  NO
Static polarizability (Velocity)        ...  NO
Static hyperpolarizability              ...  NO

Atomic electric properties:
Dipole moment                           ...  NO
Quadrupole moment                       ...  NO
Static polarizability                   ...  NO

Choice of electric origin               ... Center of mass
Position of electric origin             ...    74.634185    99.188498    41.948136

General magnetic properties:
Magnetizability                         ...  NO

EPR properties:
g-Tensor (aka g-matrix)                 ...  NO
Zero-Field splitting spin-orbit         ...  NO
Zero-field splitting spin-spin          ...  NO
Hyperfine couplings                     ...  NO (   0 nuclei)
Quadrupole couplings                    ...  NO (   0 nuclei)
Contact density                         ...  NO (   0 nuclei)

NMR properties:
Chemical shifts                         ...  NO (   0 nuclei)
Spin-rotation constants                 ...  NO (   0 nuclei)
Spin-spin couplings                     ...  NO (   0 nuclei,    0 pairs)

Choice of magnetic origin               ... GIAO
Position of magnetic origin             ...     0.000000     0.000000     0.000000

Properties with geometric perturbations:
SCF Hessian                             ...  NO
IR spectrum                             ...  NO
VCD spectrum                            ...  NO
X-ray spectroscopy properties:
SCF XES/XAS/RIXS spectra                ...  NO

SCF SOC stabilization energy            ...  NO
Diagonal Born-Oppenheimer correction    ...  NO

-------------
DIPOLE MOMENT
-------------

Method             : SCF
Type of density    : Electron Density
Multiplicity       :   1
Irrep              :   0
Energy             : -3012.6032087248386233 Eh
Basis              : AO
                                X                 Y                 Z
Electronic contribution:     58.045985554    -191.074222176      33.849301473
Nuclear contribution   :    -55.918878543     192.827421473     -34.236029130
                        -----------------------------------------
Total Dipole Moment    :      2.127107010       1.753199297      -0.386727657
                        -----------------------------------------
Magnitude (a.u.)       :      2.783496055
Magnitude (Debye)      :      7.075084706



--------------------
Rotational spectrum 
--------------------
 
Rotational constants in cm-1:             0.001477             0.000339             0.000316 
Rotational constants in MHz :            44.283578            10.162134             9.458462 

Dipole components along the rotational axes: 
x,y,z [a.u.] :    -0.659725     2.624103     0.653221 
x,y,z [Debye]:    -1.676889     6.669939     1.660355 

 

Dipole moment calculation done in   0.3 sec 

Maximum memory used throughout the entire PROP-calculation: 430.9 MB

--------------------------------
SUGGESTED CITATIONS FOR THIS RUN
--------------------------------

Below you find a list of papers that are relevant to this ORCA run
We neither can nor want to force you to cite these papers, but we appreciate if you do
You receive ORCA, which is the product of decades of hard work by many enthusiastic individuals, for free
The only thing we kindly ask in return is that you cite our papers,
We deeply appreciate it, if you show your appreciation for ORCA by not just citing the generic ORCA reference.

Please note that relegating all ORCA citations to the supporting information does *not* help us.
SI sections are not indexed - citations you put there will not count into any citation statistics
But we need these citations in order to attract the funding resources that allow us to do what we are doing

Therefore, if you are a happy ORCA user, please consider citing a few of the papers listed below in the main body of your paper

In addition to the list printed below, the program has created the file tddft.bibtex that contains the list in bibtex format
You can import this file easily into all common literature databanks and citation aid programs

It goes without saying that in many instances, there are alternative algorithms to achieve similar
results as the ones you have gotten from ORCA. It is, of course, also the case that in some instances
ORCA just re-implements algorithms worked out by others. We are fully aware of that and we are also
fully appreciative of our colleagues work. Hence this citation list should not be read as indicating
that the listed papers, which are focused on our own work, are the only ones worth citing. It simply
meant to make it easier for users to cite ORCA specific papers. It is not a substitute for doing your
own literature research and citing the relevant literature in a scientifically appropriate manner.

List of essential papers. We consider these as the minimum necessary citations

  1. Neese, F.
     Software update: the ORCA program system, version 6.0
     WIRES Comput. Molec. Sci. 2025 15(1), e70019
     doi.org/10.1002/wcms.70019

List of papers to cite with high priority. The work reported in these papers was absolutely
necessary for this run to complete.
Our perspective: the developers of density functionals and basis sets usually get cited in chemistry papers
Good! But without the algorithms to do something with them, the functionals or basis sets would not do anything.
Hence, in our opinion, the algorithm design and method developments papers are equally worthy of getting cited

  1. Neese, F.; Olbrich, G.
     Efficient use of the resolution of the identity approximation in time-dependent density functional calculations with hybrid density functionals
     Chem. Phys. Lett. 2002 362 , 170-178
     doi.org/10.1016/s0009-2614(02)01053-9
  2. Neese, F.
     An improvement of the resolution of the identity approximation for the formation of the Coulomb matrix
     J. Comp. Chem. 2003 24(14), 1740-1747
     doi.org/10.1002/jcc.10318
  3. Garcia-Rates, M.; Neese, F.
     Effect of the Solute Cavity on the Solvation Energy and its Derivatives within the Framework of the Gaussian Charge Scheme
     J. Comput. Chem. 2020 41 , 922-939
     doi.org/10.1002/jcc.26139
  4. Neese, F.
     The SHARK Integral Generation and Digestion System
     J. Comp. Chem. 2022 44(3), 381
     doi.org/10.1002/jcc.26942

List of suggested additional citations. These are papers that are important in the 'surrounding' of 
of this run, or papers that preceded the highly important papers. If you like your results we are grateful for a citation.

  1. Neese, F.
     The ORCA program system
     WIRES Comput. Molec. Sci. 2012 2(1), 73-78
     doi.org/10.1002/wcms.81
  2. Neese, F.
     Software update: the ORCA program system, version 4.0
     WIRES Comput. Molec. Sci. 2018 8(1), 1-6
     doi.org/10.1002/wcms.1327
  3. Neese, F.; Wennmohs, F.; Becker, U.; Riplinger, C.
     The ORCA quantum chemistry program package
     J. Chem. Phys. 2020 152(22), 224108
     doi.org/10.1063/5.0004608
  4. Neese, F.
     Software update: The ORCA program system—Version 5.0
     WIRES Comput. Molec. Sci. 2022 12(1), e1606
     doi.org/10.1002/wcms.1606

List of optional additional citations

  1. Neese, F.
     Approximate second-order SCF convergence for spin unrestricted wavefunctions
     Chem. Phys. Lett. 2000 325(1-3), 93-98
     doi.org/10.1016/s0009-2614(00)00662-x

Timings for individual modules:

Sum of individual times          ...    12717.188 sec (= 211.953 min)
Startup calculation              ...       47.529 sec (=   0.792 min)   0.4 %
SCF iterations                   ...     1498.665 sec (=  24.978 min)  11.8 %
Property integrals               ...        3.481 sec (=   0.058 min)   0.0 %
Property calculations            ...        1.934 sec (=   0.032 min)   0.0 %
CIS module                       ...    11165.579 sec (= 186.093 min)  87.8 %
                             ****ORCA TERMINATED NORMALLY****
TOTAL RUN TIME: 0 days 3 hours 31 minutes 57 seconds 781 msec
