
                                 *****************
                                 * O   R   C   A *
                                 *****************

                                            #,                                       
                                            ###                                      
                                            ####                                     
                                            #####                                    
                                            ######                                   
                                           ########,                                 
                                     ,,################,,,,,                         
                               ,,#################################,,                 
                          ,,##########################################,,             
                       ,#########################################, ''#####,          
                    ,#############################################,,   '####,        
                  ,##################################################,,,,####,       
                ,###########''''           ''''###############################       
              ,#####''   ,,,,##########,,,,          '''####'''          '####       
            ,##' ,,,,###########################,,,                        '##       
           ' ,,###''''                  '''############,,,                           
         ,,##''                                '''############,,,,        ,,,,,,###''
      ,#''                                            '''#######################'''  
     '                                                          ''''####''''         
             ,#######,   #######,   ,#######,      ##                                
            ,#'     '#,  ##    ##  ,#'     '#,    #''#        ,####,    ,#,          
            ##       ##  ##   ,#'  ##            #'  '#       #'       ,# #          
            ##       ##  #######   ##           ,######,      #####,      #          
            '#,     ,#'  ##    ##  '#,     ,#' ,#      #,     #,   #      #          
             '#######'   ##     ##  '#######'  #'      '#     '####' #    #          



                #########################################################
                #                        -***-                          #
                #          Department of theory and spectroscopy        #
                #                                                       #
                #                      Frank Neese                      #
                #                                                       #
                #     Directorship, Architecture, Infrastructure        #
                #                    SHARK, DRIVERS                     #
                #        Core code/Algorithms in most modules           #
                #                                                       #
                #        Max Planck Institute fuer Kohlenforschung      #
                #                Kaiser Wilhelm Platz 1                 #
                #                 D-45470 Muelheim/Ruhr                 #
                #                      Germany                          #
                #                                                       #
                #                  All rights reserved                  #
                #                        -***-                          #
                #########################################################


                         Program Version 6.1.1  -  RELEASE   -
                                (GIT: $487d211c$)
                          ($2025-11-21 10:33:24 +0100$)


 With contributions from (in alphabetic order):
[Max-Planck-Institut fuer Kohlenforschung]                               
  Daniel Aravena         : Magnetic Suceptibility                        
  Michael Atanasov       : Ab Initio Ligand Field Theory (pilot matlab implementation)
  Alexander A. Auer      : GIAO ZORA, VPT2 properties, NMR spectrum      
  Ute Becker             : All parallelization in ORCA, NUMFREQ, NUMCALC 
  Giovanni Bistoni       : ED, misc. LED, open-shell LED, HFLD           
  Dmytro Bykov           : pre 5.0 version of the SCF Hessian            
  Marcos Casanova-Páez   : Triplet and SCS-CIS(D). UHF-(DLPNO)-IP/EA/STEOM-CCSD. UHF-CVS-IP/STEOM-CCSD   
  Vijay G. Chilkuri      : MRCI spin determinant printing, contributions to CSF-ICE 
  Pauline Colinet        : FMM embedding                                 
  Dipayan Datta          : RHF DLPNO-CCSD density                        
  Achintya Kumar Dutta   : EOM-CC, STEOM-CC                              
  Nicolas Foglia         : Exact transition moments, OPA infrastructure, MCD improvements    
  Dmitry Ganyushin       : Spin-Orbit,Spin-Spin,Magnetic field MRCI      
  Miquel Garcia-Rates    : C-PCM and meta-GGA Hessian, CCSD/C-PCM, Gaussian charge scheme 
  Tiago L. C. Gouveia    : GS-ROHF, GS-ROCIS                             
  Yang Guo               : DLPNO-NEVPT2, F12-NEVPT2, CIM, IAO-localization        
  Andreas Hansen         : Spin unrestricted coupled pair/coupled cluster methods 
  Ingolf Harden          : AUTO-CI MPn and infrastructure                
  Benjamin Helmich-Paris : MC-RPA, TRAH-(SCF,CASSCF), AVAS, COSX integrals, SCF dyn. polar., MC-PDFT, srDFT 
  Lee Huntington         : MR-EOM, pCC                                   
  Robert Izsak           : Overlap fitted RIJCOSX, COSX-SCS-MP3, EOM     
  Riya Kayal             : Wick's Theorem for AUTO-CI, AUTO-CI UHF-CCSDT 
  Emily Kempfer          : AUTO-CI RHF CISDT and CCSDT, approximate NEVPT4
  Christian Kollmar      : KDIIS, OOCD, Brueckner-CCSD(T), CCSD density, CASPT2, CASPT2-K, improved NEVPT2 
  Axel Koslowski         : Symmetry handling                             
  Simone Kossmann        : meta-GGA functionals, TD-DFT gradient, OOMP2, (MP2 Hessian; deprecated post 5.0) 
  Lucas Lang             : DCDCAS, Hyperfine gauge corrections, ICE-SOC+SSC
  Marvin Lechner         : AUTO-CI (C++ implementation), FIC-MRCC        
  Spencer Leger          : CASSCF response                               
  Dagmar Lenk            : GEPOL surface, SMD, ORCA-2-JSON               
  Dimitrios Liakos       : Extrapolation schemes; Compound Job, Property file
  Dimitrios Manganas     : Further ROCIS development; embedding schemes. LFT, Crystal Embedding 
  Dimitrios Pantazis     : SARC Basis sets                               
  Anastasios Papadopoulos: AUTO-CI, single reference methods and gradients 
  Taras Petrenko         : pre 6.0 DFT Hessian and TD-DFT gradient,  ECA, NRVS 
  Petra Pikulova         : Analytic Raman intensities                    
  Peter Pinski           : DLPNO-MP2, DLPNO-MP2 Gradient                 
  Shashank Vittal Rao    : ES-AILFT, MagRelax                            
  Christoph Reimann      : Effective Core Potentials                     
  Marius Retegan         : Local ZFS, SOC                                
  Christoph Riplinger    : Optimizer, TS searches, QM/MM, DLPNO-CCSD(T), (RO)-DLPNO pert. Triples 
  Michael Roemelt        : Original ROCIS implementation, recursive CI coupling coefficients
  Masaaki Saitow         : Open-shell DLPNO-CCSD energy and density      
  Barbara Sandhoefer     : DKH picture change effects                    
  Yorick L. A. Schmerwitz: GMF and freeze-and-release deltaSCF, NEB S-IDPP initial path                    
  Kantharuban Sivalingam : CASSCF convergence/infrastructure, NEVPT2, NEVPT3, NEVPT4(SD), FIC-MRCI and CEPA variants
  Bernardo de Souza      : ESD, SOC TD-DFT                               
  Georgi L. Stoychev     : AutoAux, RI-MP2 NMR, DLPNO-MP2 response, X2C  
  Van Anh Tran           : RI-MP2 g-tensors                              
  Willem Van den Heuvel  : Paramagnetic NMR                              
  Zikuan Wang            : NOTCH, Electric field optimization            
  Frank Wennmohs         : Technical directorship and infrastructure     
  Hang Xu                : AUTO-CI-Response properties                   
                                                                         
[FACCTs GmbH]                                                            
  Markus Bursch, Nicolas Foglia, Miquel Garcia-Rates, Ingolf Harden, Hagen Neugebauer, Anastasios Papadopoulos, 
  Christoph Riplinger, Bernardo de Souza, Georgi L. Stoychev                                                    
                                                                 
  APM, various basis sets, CI-OPT, improved COSX, DLPNO-Multilevel,           
  DOCKER, DRACO, updates on ESD, Fragmentator, GOAT, IRC, LR-CPCM, L-BFGS, MBIS, meta-GGA TD-DFT gradient, ML-optimized integration grids, 
  MM, NACMEs, nearIR, NEB, NEB-TS, NL-DFT gradient (VV10), 2- and 3-layer-ONIOM, interface openCOSMO-RS, QMMM,   
  Crystal-QMMM, RESP, rigid body optimization, SF, symmetry and pop. for TD-DFT, various functionals, SOLVATOR                                   
                                                                         
[Other institutions]                                                     
  V. Asgeirsson          : NEB                                           
  Christoph Bannwarth    : sTDA-DFT, sTD-DFT, PBEh-3c, B97-3c, D3        
  Giovanni Bistoni       : ETS/NOCV, ADLD/ADEX, COVALED                  
  Martin Brehm           : Molecular dynamics                            
  Ronald Cardenas        : ETS/NOCV                                      
  Martina Colucci        : COVALED                                       
  Sebastian Ehlert       : rSCAN, r2SCAN, r2SCAN-3c, D4, dhf basis sets  
  Marvin Friede          : D4 for Fr, Ra, Ac-Lr                          
  Lars Goerigk           : TD-DFT with DH, B97 family of functionals     
  Stefan Grimme          : VdW corrections, initial TS optimization, DFT functionals, gCP, sTDA/sTD-DF 
  Waldemar Hujo          : DFT-NL                                        
  H. Jonsson             : NEB                                           
  Holger Kruse           : gCP                                           
  Marcel Mueller         : wB97X-3c, vDZP basis set                      
  Hagen Neugebauer       : wr2SCAN, Native XTB                           
  Gianluca Regni         : ADLD/ADEX                                     
  Tobias Risthaus        : pre 6.0 range-separated hybrid DFT and stability analysis
  Lukas Wittmann         : regularized MP2, r2SCAN double-hybrids, wr2SCAN        
                                                                         
We gratefully acknowledge several colleagues who have allowed us to      
interface, adapt or use parts of their codes:                            
  Ed Valeev, F. Pavosevic, A. Kumar             : LibInt (2-el integral package), F12 methods 
  Garnet Chan, S. Sharma, J. Yang, R. Olivares  : DMRG                   
  Ulf Ekstrom                                   : XCFun DFT Library      
  Mihaly Kallay                                 : mrcc  (arbitrary order and MRCC methods)
  Frank Weinhold                                : gennbo (NPA and NBO analysis)           
  Simon Mueller                                 : openCOSMO-RS                            
  Christopher J. Cramer and Donald G. Truhlar   : smd solvation model                     
  S Lehtola, MJT Oliveira, MAL Marques          : LibXC Library                           
  Liviu Ungur et al                             : ANISO software                          


 Your calculation uses the libint2 library for the computation of 2-el integrals
 For citations please refer to: http://libint.valeyev.net

 Your ORCA version has been built with support for libXC version: 7.0.0
 For citations please refer to: https://libxc.gitlab.io

 This ORCA versions uses:
   CBLAS   interface :  Fast vector & matrix operations
   LAPACKE interface :  Fast linear algebra routines
   SCALAPACK package :  Parallel linear algebra routines
   Shared memory     :  Shared parallel matrices
   BLAS/LAPACK       :  OpenBLAS 0.3.29  USE64BITINT DYNAMIC_ARCH NO_AFFINITY Haswell SINGLE_THREADED
        Core in use  :  Haswell
   Copyright (c) 2011-2014, The OpenBLAS Project


  ***********************************
  * Starting time: Fri Aug 14 00:30:49 2026
  * Host name:     steezy
  * Process ID:    445300
  * Working dir.:  /home/jannes/chlorophyll-ladder/012-bacteriochlorophyll-growth/bacteriochlorophyll_a/02_tddft_ch2cl2/m062x
  ***********************************

NOTE: MaxCore=2200 MB was set to SCF,MP2,MDCI,CIPSI,MRCI,RASCI and CIS
      => If you want to overwrite this, your respective input block should be placed after the MaxCore statement


***************************************
The coordinates will be read from file: /home/jannes/chlorophyll-ladder/012-bacteriochlorophyll-growth/bacteriochlorophyll_a/01_opt_extended/bacteriochlorophyll_a_opt_extended_b3lypd4_tzvp.xyz
***************************************


XCFun DFT library Copyright 2009-2010 Ulf Ekstrom and contributors.
See http://admol.org/xcfun for more information.
This is free software; see the source code for copying conditions.
There is ABSOLUTELY NO WARRANTY; not even for MERCHANTABILITY or FITNESS FOR A PARTICULAR PURPOSE.
For details see the documentation.
Scientific users of this library should cite U. Ekstrom, L. Visscher, R. Bast, A. J. Thorvaldsen and K. Ruud;
J.Chem.Theor.Comp. 2010, DOI: 10.1021/ct100117s
XCFun Version 0.99 

================================================================================

----- Orbital basis set information -----
Your calculation utilizes the basis: def2-TZVP
   F. Weigend and R. Ahlrichs, Phys. Chem. Chem. Phys. 7, 3297 (2005).

----- AuxJ basis set information -----
Your calculation utilizes the auxiliary basis: def2/J
   H-Rn: F. Weigend, Phys. Chem. Chem. Phys. 8, 1057 (2006).
   Fr-Lr: K. Eichkorn, F. Weigend, O. Treutler, R. Ahlrichs; Theor. Chem. Acc. 97, 119 (1997).

================================================================================
                                        WARNINGS
                       Please study these warnings very carefully!
================================================================================

WARNING: Functional chosen is sensitive to the integration grid.
         DEFGRID3 seems to be a minimum grid for robust results!

WARNING: CIS/ROCIS methods need fully converged wavefunctions
  ===> : Setting SCFConvForced true
         You can overwrite this default with %scf ConvForced false 


================================================================================
                                       INPUT FILE
================================================================================
NAME = tddft.inp
|  1> %pal nprocs 4 end
|  2> %maxcore 2200
|  3> ! M062X def2-TZVP def2/J RIJCOSX DefGrid3 TightSCF CPCM(CH2Cl2)
|  4> %tddft
|  5>   nroots 30
|  6>   tda false
|  7>   triplets false
|  8> end
|  9> * xyzfile 0 1 /home/jannes/chlorophyll-ladder/012-bacteriochlorophyll-growth/bacteriochlorophyll_a/01_opt_extended/bacteriochlorophyll_a_opt_extended_b3lypd4_tzvp.xyz
| 10> 
| 11>                          ****END OF INPUT****
================================================================================

                       ****************************
                       * Single Point Calculation *
                       ****************************

---------------------------------
CARTESIAN COORDINATES (ANGSTROEM)
---------------------------------
  Mg    41.654185   48.095014   22.382115
  C     38.395878   49.196119   22.227099
  C     42.679750   51.094416   21.176176
  C     44.841747   46.994541   22.608586
  C     40.525839   45.037233   23.583157
  N     40.650258   49.892075   21.790744
  C     39.309104   50.142195   21.824346
  C     39.001906   51.564507   21.414549
  C     40.340599   52.019553   20.796999
  C     41.309410   50.960472   21.289101
  C     40.295738   52.058053   19.265587
  C     38.534396   52.425597   22.600020
  C     39.486890   52.411392   23.791929
  C     38.931187   53.164502   24.977543
  O     37.757554   53.317191   25.210025
  O     39.916070   53.626758   25.765678
  N     43.456810   48.915214   21.992166
  C     43.684450   50.174742   21.505615
  C     45.096001   50.394661   21.358140
  C     45.721030   49.225922   21.772403
  C     44.668108   48.311345   22.167343
  C     45.697065   51.675403   20.876139
  C     47.161302   48.913623   21.819028
  O     47.595775   47.968588   22.458439
  C     48.134761   49.772692   21.036427
  N     42.541072   46.287612   22.997262
  C     43.875068   46.075791   22.972778
  C     44.213197   44.649768   23.360208
  C     42.880981   44.138485   23.943671
  C     41.892837   45.188841   23.472234
  C     44.681337   43.842016   22.145192
  C     42.883504   44.001105   25.478117
  C     43.152758   45.300525   26.234088
  N     39.885934   47.252563   22.804899
  C     39.549512   45.992179   23.266984
  C     38.118868   45.862645   23.380809
  C     37.618684   47.093849   22.975879
  C     38.726396   47.903031   22.638816
  C     37.364975   44.658723   23.830781
  C     36.401366   47.862170   22.773672
  O     35.242299   47.553691   22.911362
  C     36.884425   49.307576   22.304796
  C     36.215127   49.657560   20.996699
  O     36.663447   49.420929   19.902260
  O     35.029915   50.246642   21.210054
  C     34.241472   50.512071   20.040305
  C     39.494986   54.365743   26.952752
  C     38.950473   55.720426   26.627044
  C     39.676448   56.773630   26.243057
  C     41.171125   56.745343   26.092285
  C     38.999943   58.070852   25.883897
  C     39.010384   58.366607   24.376827
  C     38.270318   59.657093   24.030772
  C     38.124269   59.937774   22.528569
  C     39.482424   60.155203   21.856128
  C     37.178718   61.125838   22.302730
  C     36.762928   61.357191   20.850720
  C     35.744127   62.486379   20.702573
  C     35.207561   62.698600   19.279927
  C     36.308339   63.159752   18.321398
  C     34.023486   63.675351   19.301616
  C     33.263132   63.806379   17.982699
  C     32.027950   64.698003   18.101348
  C     31.164051   64.788870   16.836678
  C     31.910499   65.431018   15.665164
  C     29.868590   65.549157   17.127636
  H     43.012741   52.035993   20.762293
  H     45.867296   46.666859   22.678540
  H     40.175979   44.088007   23.968920
  H     38.212146   51.575882   20.661466
  H     40.630395   53.007479   21.164563
  H     41.271395   52.311340   18.847350
  H     39.995880   51.087560   18.864959
  H     39.573857   52.803152   18.923823
  H     38.402930   53.453395   22.248826
  H     37.550965   52.094894   22.934280
  H     39.654623   51.382225   24.127167
  H     40.468636   52.816685   23.545746
  H     46.498005   52.018533   21.531401
  H     46.121775   51.574317   19.874221
  H     44.954090   52.468979   20.835177
  H     49.091411   49.255906   21.003376
  H     47.783030   49.971608   20.023686
  H     48.277118   50.736295   21.530178
  H     45.006441   44.639331   24.111259
  H     42.626057   43.163125   23.521430
  H     44.890328   42.808566   22.431012
  H     43.913079   43.831660   21.368404
  H     45.589628   44.267151   21.715625
  H     41.917453   43.594531   25.791577
  H     43.635095   43.252218   25.748207
  H     43.137650   45.126904   27.311377
  H     44.127581   45.723247   25.983570
  H     42.394483   46.052847   26.008752
  H     36.300977   44.879238   23.899811
  H     37.492205   43.825890   23.132883
  H     37.708172   44.312578   24.809553
  H     36.540343   50.008910   23.067602
  H     33.323507   50.964839   20.404453
  H     34.767449   51.192836   19.371076
  H     34.027697   49.584411   19.510530
  H     38.752282   53.768642   27.479334
  H     40.402586   54.414373   27.550907
  H     37.872598   55.820537   26.676194
  H     41.623521   57.597522   26.607969
  H     41.619367   55.830591   26.475097
  H     41.455769   56.828644   25.039617
  H     37.964652   58.046846   26.232843
  H     39.493557   58.897600   26.409021
  H     40.042258   58.419719   24.022295
  H     38.542784   57.526455   23.852167
  H     37.269297   59.612776   24.473482
  H     38.775092   60.506815   24.507189
  H     37.657105   59.053728   22.073789
  H     39.380540   60.318337   20.782646
  H     39.983415   61.031060   22.280352
  H     40.141939   59.296864   21.990500
  H     36.275597   60.968995   22.902750
  H     37.648749   62.035818   22.696410
  H     37.644715   61.572527   20.243754
  H     36.332382   60.431367   20.449867
  H     34.896877   62.280187   21.365915
  H     36.186327   63.424616   21.060503
  H     34.829286   61.730985   18.922794
  H     35.935409   63.276077   17.303136
  H     36.713444   64.125181   18.640728
  H     37.134717   62.448953   18.282587
  H     33.321026   63.350476   20.077159
  H     34.381664   64.664174   19.614624
  H     33.926804   64.200016   17.209898
  H     32.955692   62.808976   17.645047
  H     31.404430   64.325162   18.921792
  H     32.336467   65.710075   18.392677
  H     30.895202   63.765309   16.545400
  H     31.268706   65.499592   14.783810
  H     32.230469   66.445712   15.921902
  H     32.798113   64.863348   15.382156
  H     29.223693   65.588677   16.246705
  H     29.304586   65.078558   17.936329
  H     30.082986   66.579302   17.427734

----------------------------
CARTESIAN COORDINATES (A.U.)
----------------------------
  NO LB      ZA    FRAG     MASS         X           Y           Z
   0 Mg   12.0000    0    24.305   78.715002   90.886405   42.296067
   1 C     6.0000    0    12.011   72.557694   92.967192   42.003129
   2 C     6.0000    0    12.011   80.653039   96.554453   40.017172
   3 C     6.0000    0    12.011   84.738622   88.806812   42.724035
   4 C     6.0000    0    12.011   76.582737   85.108036   44.565707
   5 N     7.0000    0    14.007   76.817854   94.282359   41.178538
   6 C     6.0000    0    12.011   74.283441   94.755017   41.242038
   7 C     6.0000    0    12.011   73.702921   97.442797   40.467633
   8 C     6.0000    0    12.011   76.232684   98.302708   39.300633
   9 C     6.0000    0    12.011   78.063471   96.301336   40.230571
  10 C     6.0000    0    12.011   76.147909   98.375463   36.406684
  11 C     6.0000    0    12.011   72.819456   99.070021   42.707848
  12 C     6.0000    0    12.011   74.619409   99.043177   44.960229
  13 C     6.0000    0    12.011   73.569282  100.466349   47.200716
  14 O     8.0000    0    15.999   71.351436  100.754889   47.640043
  15 O     8.0000    0    15.999   75.430440  101.339886   48.690076
  16 N     7.0000    0    14.007   82.121470   92.436357   41.559170
  17 C     6.0000    0    12.011   82.551647   94.816521   40.639723
  18 C     6.0000    0    12.011   85.219092   95.232108   40.361035
  19 C     6.0000    0    12.011   86.400225   93.023512   41.143878
  20 C     6.0000    0    12.011   84.410492   91.295211   41.890208
  21 C     6.0000    0    12.011   86.354937   97.652360   39.450185
  22 C     6.0000    0    12.011   89.121945   92.433351   41.231987
  23 O     8.0000    0    15.999   89.942979   90.647494   42.440300
  24 C     6.0000    0    12.011   90.961517   94.056757   39.753087
  25 N     7.0000    0    14.007   80.390975   87.470911   43.458526
  26 C     6.0000    0    12.011   82.911862   87.070627   43.412259
  27 C     6.0000    0    12.011   83.550833   84.375833   44.144395
  28 C     6.0000    0    12.011   81.033310   83.409650   45.246982
  29 C     6.0000    0    12.011   79.165989   85.394534   44.356094
  30 C     6.0000    0    12.011   84.435490   82.849403   41.848349
  31 C     6.0000    0    12.011   81.038077   83.150037   48.146664
  32 C     6.0000    0    12.011   81.546895   85.605585   49.575242
  33 N     7.0000    0    14.007   75.373492   89.294404   43.095013
  34 C     6.0000    0    12.011   74.737746   86.912622   43.968227
  35 C     6.0000    0    12.011   72.034220   86.667839   44.183325
  36 C     6.0000    0    12.011   71.089010   88.994477   43.418119
  37 C     6.0000    0    12.011   73.182283   90.523609   42.781162
  38 C     6.0000    0    12.011   70.609569   84.392756   45.033649
  39 C     6.0000    0    12.011   68.788612   90.446394   43.036003
  40 O     8.0000    0    15.999   66.598293   89.863453   43.296200
  41 C     6.0000    0    12.011   69.701462   93.177815   42.149955
  42 C     6.0000    0    12.011   68.436671   93.839189   39.678010
  43 O     8.0000    0    15.999   69.283873   93.392021   37.609821
  44 O     8.0000    0    15.999   66.196946   94.952393   40.081193
  45 C     6.0000    0    12.011   64.707004   95.453980   37.870688
  46 C     6.0000    0    12.011   74.634707  102.736365   50.933320
  47 C     6.0000    0    12.011   73.605726  105.296344   50.317821
  48 C     6.0000    0    12.011   74.977620  107.286612   49.592191
  49 C     6.0000    0    12.011   77.802151  107.233158   49.307274
  50 C     6.0000    0    12.011   73.699211  109.738006   48.913477
  51 C     6.0000    0    12.011   73.718942  110.296902   46.065528
  52 C     6.0000    0    12.011   72.320420  112.735569   45.411577
  53 C     6.0000    0    12.011   72.044427  113.265978   42.572826
  54 C     6.0000    0    12.011   74.610969  113.676859   41.302096
  55 C     6.0000    0    12.011   70.257595  115.511093   42.146052
  56 C     6.0000    0    12.011   69.471865  115.948288   39.402151
  57 C     6.0000    0    12.011   67.546610  118.082143   39.122193
  58 C     6.0000    0    12.011   66.532647  118.483183   36.433782
  59 C     6.0000    0    12.011   68.612817  119.354634   34.622425
  60 C     6.0000    0    12.011   64.295071  120.328975   36.474768
  61 C     6.0000    0    12.011   62.858210  120.576582   33.982377
  62 C     6.0000    0    12.011   60.524054  122.261508   34.206589
  63 C     6.0000    0    12.011   58.891521  122.433221   31.816711
  64 C     6.0000    0    12.011   60.302103  123.646705   29.602870
  65 C     6.0000    0    12.011   56.443455  123.869954   32.366541
  66 H     1.0000    0     1.008   81.282300   98.333776   39.235048
  67 H     1.0000    0     1.008   86.676627   88.187582   42.856230
  68 H     1.0000    0     1.008   75.921597   83.314258   45.294694
  69 H     1.0000    0     1.008   72.210490   97.464292   39.044513
  70 H     1.0000    0     1.008   76.780319  100.169618   39.995228
  71 H     1.0000    0     1.008   77.991634   98.854106   35.616329
  72 H     1.0000    0     1.008   75.581260   96.541497   35.649605
  73 H     1.0000    0     1.008   74.783751   99.783496   35.760843
  74 H     1.0000    0     1.008   72.571020  101.012277   42.044188
  75 H     1.0000    0     1.008   70.961039   98.445083   43.339508
  76 H     1.0000    0     1.008   74.936378   97.098333   45.593739
  77 H     1.0000    0     1.008   76.474639   99.809070   44.495012
  78 H     1.0000    0     1.008   87.868496   98.300781   40.688450
  79 H     1.0000    0     1.008   87.157524   97.461335   37.556835
  80 H     1.0000    0     1.008   84.950920   99.152001   39.372778
  81 H     1.0000    0     1.008   92.769322   93.080173   39.690629
  82 H     1.0000    0     1.008   90.296840   94.432654   37.839283
  83 H     1.0000    0     1.008   91.230531   95.877702   40.686139
  84 H     1.0000    0     1.008   85.049847   84.356111   45.563677
  85 H     1.0000    0     1.008   80.551574   81.566486   44.449060
  86 H     1.0000    0     1.008   84.830427   80.896466   42.388470
  87 H     1.0000    0     1.008   82.983692   82.829834   40.380432
  88 H     1.0000    0     1.008   86.151912   83.652791   41.036583
  89 H     1.0000    0     1.008   79.212507   82.381724   48.739016
  90 H     1.0000    0     1.008   82.458380   81.734846   48.657060
  91 H     1.0000    0     1.008   81.518344   85.277490   51.611023
  92 H     1.0000    0     1.008   83.389043   86.404414   49.101831
  93 H     1.0000    0     1.008   80.113962   87.027269   49.149418
  94 H     1.0000    0     1.008   68.598904   84.809469   45.164097
  95 H     1.0000    0     1.008   70.850000   82.818930   43.714813
  96 H     1.0000    0     1.008   71.258118   83.738637   46.883260
  97 H     1.0000    0     1.008   69.051240   94.503144   43.591450
  98 H     1.0000    0     1.008   62.972302   96.309587   38.558827
  99 H     1.0000    0     1.008   65.700956   96.740441   36.606029
 100 H     1.0000    0     1.008   64.303029   93.700958   36.869559
 101 H     1.0000    0     1.008   73.231201  101.608007   51.928416
 102 H     1.0000    0     1.008   76.349823  102.828263   52.063669
 103 H     1.0000    0     1.008   71.568839  105.485527   50.410701
 104 H     1.0000    0     1.008   78.657056  108.843542   50.281775
 105 H     1.0000    0     1.008   78.649206  105.504528   50.030683
 106 H     1.0000    0     1.008   78.340050  107.390573   47.318018
 107 H     1.0000    0     1.008   71.742796  109.692643   49.572889
 108 H     1.0000    0     1.008   74.632007  111.300335   49.905817
 109 H     1.0000    0     1.008   75.668902  110.397269   45.395558
 110 H     1.0000    0     1.008   72.835306  108.709246   45.074063
 111 H     1.0000    0     1.008   70.428764  112.651820   46.248178
 112 H     1.0000    0     1.008   73.274305  114.341310   46.311876
 113 H     1.0000    0     1.008   71.161616  111.595373   41.713417
 114 H     1.0000    0     1.008   74.418435  113.985139   39.273509
 115 H     1.0000    0     1.008   75.557705  115.331988   42.103763
 116 H     1.0000    0     1.008   75.857271  112.054833   41.556023
 117 H     1.0000    0     1.008   68.550943  115.214703   43.279925
 118 H     1.0000    0     1.008   71.145824  117.230707   42.889999
 119 H     1.0000    0     1.008   71.138202  116.355213   38.255150
 120 H     1.0000    0     1.008   68.658251  114.198734   38.644649
 121 H     1.0000    0     1.008   65.945540  117.692497   40.375727
 122 H     1.0000    0     1.008   68.382248  119.855154   39.798584
 123 H     1.0000    0     1.008   65.817811  116.654655   35.758899
 124 H     1.0000    0     1.008   67.908081  119.574457   32.698188
 125 H     1.0000    0     1.008   69.378355  121.179031   35.225870
 126 H     1.0000    0     1.008   70.174444  118.011418   34.549082
 127 H     1.0000    0     1.008   62.967614  119.715050   37.940333
 128 H     1.0000    0     1.008   64.971930  122.197580   37.066268
 129 H     1.0000    0     1.008   64.112367  121.320447   32.521995
 130 H     1.0000    0     1.008   62.277233  118.691764   33.344307
 131 H     1.0000    0     1.008   59.345772  121.556939   35.757005
 132 H     1.0000    0     1.008   61.107067  124.174045   34.757123
 133 H     1.0000    0     1.008   58.383471  120.498971   31.266275
 134 H     1.0000    0     1.008   59.089290  123.776292   27.937353
 135 H     1.0000    0     1.008   60.906759  125.564199   30.088034
 136 H     1.0000    0     1.008   61.979451  122.573964   29.068062
 137 H     1.0000    0     1.008   55.224776  123.944637   30.701822
 138 H     1.0000    0     1.008   55.377642  122.980652   33.894749
 139 H     1.0000    0     1.008   56.848605  125.816647   32.933644

--------------------------------
INTERNAL COORDINATES (ANGSTROEM)
--------------------------------
 Mg     0   0   0     0.000000000000     0.00000000     0.00000000
 C      1   0   0     3.442822576636     0.00000000     0.00000000
 C      1   2   0     3.391531285625    89.27379526     0.00000000
 C      1   2   3     3.379775498795   178.68423197   127.32406749
 C      1   2   3     3.473570507969    89.40887264   180.53794777
 N      1   2   3     2.141732801460    43.58003832     0.11090155
 C      6   1   2     1.364691414325   127.41948713     1.07056829
 C      7   6   1     1.511712742358   111.43666168   176.00992723
 C      8   7   6     1.542897338756   102.10315393    13.46498825
 C      6   1   2     1.351886955168   122.48131868   182.42025883
 C      9   8   7     1.532552736982   112.45554488   104.11554453
 C      8   7   6     1.537979908075   112.30863114   250.91324535
 C     12   8   7     1.525809123395   114.02584502    53.55888874
 C     13  12   8     1.510517084465   112.26203018   185.25100837
 O     14  13  12     1.206141450090   124.91634702    27.21103301
 O     14  13  12     1.343440084959   111.24274088   205.97397103
 N      1   2   3     2.018476041096   134.95416498     2.25914019
 C     17   1   2     1.369292792013   126.21998472   357.41567272
 C     18  17   1     1.436171650307   109.92181242   180.07534682
 C     19  18  17     1.388605156575   106.43211159   359.96393603
 C     17   1   2     1.364766257928   126.01833725   177.40321797
 C     19  18  17     1.494625119211   124.02723872   181.27915309
 C     20  19  18     1.474478961668   128.85645071   179.71182275
 O     23  20  19     1.220944265732   121.87679999   164.28552897
 C     23  20  19     1.515944062947   119.39966630   343.32681133
 N      1   2   3     2.105154224909   133.35062424   179.73527050
 C     26   1   2     1.350930508859   123.04757831   180.13538757
 C     27  26   1     1.515907608044   111.29225075   184.78404961
 C     28  27  26     1.541634719739   102.47179288   347.04668041
 C     26   1   2     1.361288157653   126.46498462   359.75567540
 C     28  27  26     1.532279387962   111.18551198   107.93223998
 C     29  28  27     1.540585487210   113.89877928   253.64836923
 C     32  29  28     1.527246755281   114.67265954    59.92822059
 N      1   2   3     2.003791824596    46.27529949   181.22260356
 C     34   1   2     1.383933156407   131.90213610   179.70637604
 C     35  34   1     1.440998978098   110.46196832   181.46862980
 C     36  35  34     1.389249564606   104.75952235   359.71581260
 C     34   1   2     1.339857884193   122.23746672     0.94590271
 C     36  35  34     1.490052685810   126.78392204   179.45899266
 C     37  36  35     1.453640074009   144.14207541   180.44565283
 O     40  37  36     1.207292425423   130.77273245   357.90957225
 C      2   1   3     1.517547159741   164.53417584   179.98171429
 C     42   2   1     1.510485445098   114.45640537   236.65105402
 O     43  42   2     1.206143037713   125.14517354    25.93115015
 O     43  42   2     1.340620926581   110.83793086   204.57463086
 C     45  43  42     1.435411877567   115.92326041   185.66164535
 C     16  14  13     1.460326472057   116.07910134   180.41601552
 C     47  16  14     1.495909802625   112.72042119   287.76467119
 C     48  47  16     1.335561344488   125.37145776   286.60779164
 C     49  48  47     1.502528875259   123.69258929   359.50974429
 C     49  48  47     1.506466067918   120.23168817   177.26804634
 C     51  49  48     1.535851292928   113.37278381   252.54242440
 C     52  51  49     1.527353279793   112.44123692   177.67555540
 C     53  52  51     1.535162712251   114.97892410   185.78419736
 C     54  53  52     1.531025231347   111.79895102   295.86302091
 C     54  53  52     1.535110829703   110.12421088   170.89546266
 C     56  54  53     1.527985241248   115.12482927   189.93479190
 C     57  56  54     1.528059843717   112.67145119   175.80152829
 C     58  57  56     1.535207680015   115.15201269   184.36514357
 C     59  58  57     1.530735740720   111.75167665   294.87378157
 C     59  58  57     1.535104571984   110.14820679   169.92583379
 C     61  59  58     1.528021002671   115.22572765   188.99215594
 C     62  61  59     1.527987654961   112.66020692   175.06684628
 C     63  62  61     1.534263987452   115.19651454   184.22607196
 C     64  63  62     1.530354066497   112.40875057   296.34072602
 C     64  63  62     1.530003248709   110.45258640   172.42960905
 H      3   1   2     1.081087118111   178.22904167   254.25841233
 H      4   1  34     1.078896998460   178.66999951   195.24121964
 H      5   1   2     1.082703074296   179.35529804   265.21365120
 H      8   7   6     1.091322363625   110.11642317   130.73935530
 H      9   8   7     1.093198737172   111.22043992   226.33211750
 H     11   9   8     1.091322069902   111.26088326   184.14167391
 H     11   9   8     1.091913112386   110.63067436   304.35879309
 H     11   9   8     1.092285711510   110.43463281    63.94681169
 H     12   8   7     1.094069682986   108.36514711   175.82700546
 H     12   8   7     1.090060544107   109.92221944   291.20274690
 H     13  12   8     1.095310260924   110.08619827   303.74708667
 H     13  12   8     1.090271423672   112.47432966    62.07341105
 H     22  19  18     1.090234665521   111.79615968   130.59689718
 H     22  19  18     1.092902623323   111.87995063   250.76370436
 H     22  19  18     1.087865281676   111.25864342    10.84542860
 H     25  23  20     1.087813424053   108.13087679   193.24939594
 H     25  23  20     1.090379910872   112.06919779   314.66374505
 H     25  23  20     1.092055159606   110.50754805    74.56045501
 H     28  27  26     1.092439327820   110.28311461   228.40621121
 H     29  28  27     1.092978321018   110.56698860   132.09706977
 H     31  28  27     1.092423451422   110.46789319   181.85517930
 H     31  28  27     1.092578376366   110.72768338   301.64546609
 H     31  28  27     1.090991084792   111.17086532    61.71455896
 H     32  29  28     1.093989303176   108.48655718   182.37815009
 H     32  29  28     1.094838061988   107.92861482   297.20798416
 H     33  32  29     1.091294590087   110.53826935   179.90369813
 H     33  32  29     1.091665379266   111.91938455   299.68319771
 H     33  32  29     1.091671815044   111.20540736    60.34421836
 H     39  36  35     1.088799048765   110.48320409   175.04821543
 H     39  36  35     1.094011147724   111.32130243   294.98593094
 H     39  36  35     1.093433088526   111.54865231    54.51817351
 H     42   2   1     1.091849334508   113.37941207   111.51741459
 H     46  45  43     1.086398841088   105.54728233   178.88567943
 H     46  45  43     1.089936063876   110.53595156   298.60678678
 H     46  45  43     1.089455128400   110.27975468    59.38828671
 H     47  16  14     1.088773145007   108.19933702    50.53344915
 H     47  16  14     1.088068223579   103.23631702   166.10474124
 H     48  47  16     1.083628784739   115.83976796   104.08948511
 H     50  49  48     1.093983941695   110.45088940   229.16933306
 H     50  49  48     1.088226384394   112.97161483   351.00163982
 H     50  49  48     1.093651004596   110.73587103   111.23748701
 H     51  49  48     1.092778788349   109.29289796    14.22799128
 H     51  49  48     1.096778797393   109.44133268   130.93652465
 H     52  51  49     1.092373284981   109.52725167   300.38175508
 H     52  51  49     1.095341275632   108.62729540    56.40608257
 H     53  52  51     1.095445035900   108.48320544   307.33132390
 H     53  52  51     1.097177209814   109.45417681    62.60794460
 H     54  53  52     1.098454942184   107.36408651    54.19429773
 H     55  54  53     1.090576583699   111.75846323   177.91528680
 H     55  54  53     1.094569733198   110.45303052   297.83874869
 H     55  54  53     1.090762170152   111.74678440    57.80211755
 H     56  54  53     1.095559821910   108.44451781   311.69982186
 H     56  54  53     1.097259055719   108.97760134    66.63796595
 H     57  56  54     1.091937445561   109.77554527   298.50983537
 H     57  56  54     1.096906114294   109.04324722    54.56233822
 H     58  57  56     1.095613864776   108.53095530   306.13502026
 H     58  57  56     1.097243751693   109.36323617    61.30525587
 H     59  58  57     1.098597074055   107.44770152    53.20559313
 H     60  59  58     1.090626968696   111.76967582   177.95116219
 H     60  59  58     1.094593528292   110.43686888   297.89346797
 H     60  59  58     1.090706996051   111.76467176    57.82550027
 H     61  59  58     1.095655424138   108.41286796   310.76719854
 H     61  59  58     1.097285926847   109.00396266    65.64718767
 H     62  61  59     1.092076323728   109.83485239   297.58197610
 H     62  61  59     1.096968748863   109.09748210    53.69540355
 H     63  62  61     1.095863261513   108.63552213   306.11394692
 H     63  62  61     1.097426304316   109.35985726    61.33229487
 H     64  63  62     1.097633898378   107.54332761    54.98227989
 H     65  64  63     1.092421699897   110.94023736   180.99111508
 H     65  64  63     1.094485645193   110.61227749   300.35308129
 H     65  64  63     1.090963986591   112.15366258    60.71309618
 H     66  64  63     1.092471391248   111.37373074   182.24209523
 H     66  64  63     1.092496296978   111.33562207   302.74848061
 H     66  64  63     1.094177512146   110.73766633    62.51731883

---------------------------
INTERNAL COORDINATES (A.U.)
---------------------------
 Mg     0   0   0     0.000000000000     0.00000000     0.00000000
 C      1   0   0     6.505991797524     0.00000000     0.00000000
 C      1   2   0     6.409065304457    89.27379526     0.00000000
 C      1   2   3     6.386850086860   178.68423197   127.32406749
 C      1   2   3     6.564096966928    89.40887264   180.53794777
 N      1   2   3     4.047288446795    43.58003832     0.11090155
 C      6   1   2     2.578893030389   127.41948713     1.07056829
 C      7   6   1     2.856723076216   111.43666168   176.00992723
 C      8   7   6     2.915653423005   102.10315393    13.46498825
 C      6   1   2     2.554696109289   122.48131868   182.42025883
 C      9   8   7     2.896104958687   112.45554488   104.11554453
 C      8   7   6     2.906360825736   112.30863114   250.91324535
 C     12   8   7     2.883361375856   114.02584502    53.55888874
 C     13  12   8     2.854463610248   112.26203018   185.25100837
 O     14  13  12     2.279277019441   124.91634702    27.21103301
 O     14  13  12     2.538733837904   111.24274088   205.97397103
 N      1   2   3     3.814366925553   134.95416498     2.25914019
 C     17   1   2     2.587588374058   126.21998472   357.41567272
 C     18  17   1     2.713971100383   109.92181242   180.07534682
 C     19  18  17     2.624083454077   106.43211159   359.96393603
 C     17   1   2     2.579034464300   126.01833725   177.40321797
 C     19  18  17     2.824432148189   124.02723872   181.27915309
 C     20  19  18     2.786361427781   128.85645071   179.71182275
 O     23  20  19     2.307250287016   121.87679999   164.28552897
 C     23  20  19     2.864719113314   119.39966630   343.32681133
 N      1   2   3     3.978164954745   133.35062424   179.73527050
 C     26   1   2     2.552888687702   123.04757831   180.13538757
 C     27  26   1     2.864650223531   111.29225075   184.78404961
 C     28  27  26     2.913267418852   102.47179288   347.04668041
 C     26   1   2     2.572461807314   126.46498462   359.75567540
 C     28  27  26     2.895588403900   111.18551198   107.93223998
 C     29  28  27     2.911284656720   113.89877928   253.64836923
 C     32  29  28     2.886078106402   114.67265954    59.92822059
 N      1   2   3     3.786617777878    46.27529949   181.22260356
 C     34   1   2     2.615254653263   131.90213610   179.70637604
 C     35  34   1     2.723093427866   110.46196832   181.46862980
 C     36  35  34     2.625301208774   104.75952235   359.71581260
 C     34   1   2     2.531964459500   122.23746672     0.94590271
 C     36  35  34     2.815791501295   126.78392204   179.45899266
 C     37  36  35     2.746981637170   144.14207541   180.44565283
 O     40  37  36     2.281452047607   130.77273245   357.90957225
 C      2   1   3     2.867748527220   164.53417584   179.98171429
 C     42   2   1     2.854403820509   114.45640537   236.65105402
 O     43  42   2     2.279280019613   125.14517354    25.93115015
 O     43  42   2     2.533406400642   110.83793086   204.57463086
 C     45  43  42     2.712535337980   115.92326041   185.66164535
 C     16  14  13     2.759617098303   116.07910134   180.41601552
 C     47  16  14     2.826859848010   112.72042119   287.76467119
 C     48  47  16     2.523845176134   125.37145776   286.60779164
 C     49  48  47     2.839368082549   123.69258929   359.50974429
 C     49  48  47     2.846808298409   120.23168817   177.26804634
 C     51  49  48     2.902338326063   113.37278381   252.54242440
 C     52  51  49     2.886279408555   112.44123692   177.67555540
 C     53  52  51     2.901037097162   114.97892410   185.78419736
 C     54  53  52     2.893218391368   111.79895102   295.86302091
 C     54  53  52     2.900939053356   110.12421088   170.89546266
 C     56  54  53     2.887473642633   115.12482927   189.93479190
 C     57  56  54     2.887614620867   112.67145119   175.80152829
 C     58  57  56     2.901122073921   115.15201269   184.36514357
 C     59  58  57     2.892671333365   111.75167665   294.87378157
 C     59  58  57     2.900927227981   110.14820679   169.92583379
 C     61  59  58     2.887541221928   115.22572765   188.99215594
 C     62  61  59     2.887478203888   112.66020692   175.06684628
 C     63  62  61     2.899338753422   115.19651454   184.22607196
 C     64  63  62     2.891950073612   112.40875057   296.34072602
 C     64  63  62     2.891287124070   110.45258640   172.42960905
 H      3   1   2     2.042958580139   178.22904167   254.25841233
 H      4   1  34     2.038819853800   178.66999951   195.24121964
 H      5   1   2     2.046012294774   179.35529804   265.21365120
 H      8   7   6     2.062300391075   110.11642317   130.73935530
 H      9   8   7     2.065846223204   111.22043992   226.33211750
 H     11   9   8     2.062299836019   111.26088326   184.14167391
 H     11   9   8     2.063416744447   110.63067436   304.35879309
 H     11   9   8     2.064120854749   110.43463281    63.94681169
 H     12   8   7     2.067492072269   108.36514711   175.82700546
 H     12   8   7     2.059915897756   109.92221944   291.20274690
 H     13  12   8     2.069836424820   110.08619827   303.74708667
 H     13  12   8     2.060314402381   112.47432966    62.07341105
 H     22  19  18     2.060244939543   111.79615968   130.59689718
 H     22  19  18     2.065286649124   111.87995063   250.76370436
 H     22  19  18     2.055767452968   111.25864342    10.84542860
 H     25  23  20     2.055669456264   108.13087679   193.24939594
 H     25  23  20     2.060519413477   112.06919779   314.66374505
 H     25  23  20     2.063685174790   110.50754805    74.56045501
 H     28  27  26     2.064411147505   110.28311461   228.40621121
 H     29  28  27     2.065429697037   110.56698860   132.09706977
 H     31  28  27     2.064381145461   110.46789319   181.85517930
 H     31  28  27     2.064673911177   110.72768338   301.64546609
 H     31  28  27     2.061674364807   111.17086532    61.71455896
 H     32  29  28     2.067340176442   108.48655718   182.37815009
 H     32  29  28     2.068944098150   107.92861482   297.20798416
 H     33  32  29     2.062247906694   110.53826935   179.90369813
 H     33  32  29     2.062948596695   111.91938455   299.68319771
 H     33  32  29     2.062960758553   111.20540736    60.34421836
 H     39  36  35     2.057532017041   110.48320409   175.04821543
 H     39  36  35     2.067381456656   111.32130243   294.98593094
 H     39  36  35     2.066289083081   111.54865231    54.51817351
 H     42   2   1     2.063296221725   113.37941207   111.51741459
 H     46  45  43     2.052996281866   105.54728233   178.88567943
 H     46  45  43     2.059680664210   110.53595156   298.60678678
 H     46  45  43     2.058771827873   110.27975468    59.38828671
 H     47  16  14     2.057483066032   108.19933702    50.53344915
 H     47  16  14     2.056150957587   103.23631702   166.10474124
 H     48  47  16     2.047761633991   115.83976796   104.08948511
 H     50  49  48     2.067330044711   110.45088940   229.16933306
 H     50  49  48     2.056449838212   112.97161483   351.00163982
 H     50  49  48     2.066700884774   110.73587103   111.23748701
 H     51  49  48     2.065052634938   109.29289796    14.22799128
 H     51  49  48     2.072611556565   109.44133268   130.93652465
 H     52  51  49     2.064286344627   109.52725167   300.38175508
 H     52  51  49     2.069895034124   108.62729540    56.40608257
 H     53  52  51     2.070091112614   108.48320544   307.33132390
 H     53  52  51     2.073364446928   109.45417681    62.60794460
 H     54  53  52     2.075779011180   107.36408651    54.19429773
 H     55  54  53     2.060891071258   111.75846323   177.91528680
 H     55  54  53     2.068437030224   110.45303052   297.83874869
 H     55  54  53     2.061241778830   111.74678440    57.80211755
 H     56  54  53     2.070308026738   108.44451781   311.69982186
 H     56  54  53     2.073519113274   108.97760134    66.63796595
 H     57  56  54     2.063462727485   109.77554527   298.50983537
 H     57  56  54     2.072852150640   109.04324722    54.56233822
 H     58  57  56     2.070410152953   108.53095530   306.13502026
 H     58  57  56     2.073490192857   109.36323617    61.30525587
 H     59  58  57     2.076047601491   107.44770152    53.20559313
 H     60  59  58     2.060986285105   111.76967582   177.95116219
 H     60  59  58     2.068481996434   110.43686888   297.89346797
 H     60  59  58     2.061137514889   111.76467176    57.82550027
 H     61  59  58     2.070488688765   108.41286796   310.76719854
 H     61  59  58     2.073569892347   109.00396266    65.64718767
 H     62  61  59     2.063725169186   109.83485239   297.58197610
 H     62  61  59     2.072970512822   109.09748210    53.69540355
 H     63  62  61     2.070881444485   108.63552213   306.11394692
 H     63  62  61     2.073835167319   109.35985726    61.33229487
 H     64  63  62     2.074227463243   107.54332761    54.98227989
 H     65  64  63     2.064377835557   110.94023736   180.99111508
 H     65  64  63     2.068278126922   110.61227749   300.35308129
 H     65  64  63     2.061623156628   112.15366258    60.71309618
 H     66  64  63     2.064471738602   111.37373074   182.24209523
 H     66  64  63     2.064518803611   111.33562207   302.74848061
 H     66  64  63     2.067695839851   110.73766633    62.51731883

---------------------
BASIS SET INFORMATION
---------------------
There are 5 groups of distinct atoms

 Group   1 Type Mg  : 14s8p3d contracted to 5s4p3d pattern {73211/5111/111}
 Group   2 Type C   : 11s6p2d1f contracted to 5s3p2d1f pattern {62111/411/11/1}
 Group   3 Type N   : 11s6p2d1f contracted to 5s3p2d1f pattern {62111/411/11/1}
 Group   4 Type O   : 11s6p2d1f contracted to 5s3p2d1f pattern {62111/411/11/1}
 Group   5 Type H   : 5s1p contracted to 3s1p pattern {311/1}

Atom   0Mg   basis set group =>   1
Atom   1C    basis set group =>   2
Atom   2C    basis set group =>   2
Atom   3C    basis set group =>   2
Atom   4C    basis set group =>   2
Atom   5N    basis set group =>   3
Atom   6C    basis set group =>   2
Atom   7C    basis set group =>   2
Atom   8C    basis set group =>   2
Atom   9C    basis set group =>   2
Atom  10C    basis set group =>   2
Atom  11C    basis set group =>   2
Atom  12C    basis set group =>   2
Atom  13C    basis set group =>   2
Atom  14O    basis set group =>   4
Atom  15O    basis set group =>   4
Atom  16N    basis set group =>   3
Atom  17C    basis set group =>   2
Atom  18C    basis set group =>   2
Atom  19C    basis set group =>   2
Atom  20C    basis set group =>   2
Atom  21C    basis set group =>   2
Atom  22C    basis set group =>   2
Atom  23O    basis set group =>   4
Atom  24C    basis set group =>   2
Atom  25N    basis set group =>   3
Atom  26C    basis set group =>   2
Atom  27C    basis set group =>   2
Atom  28C    basis set group =>   2
Atom  29C    basis set group =>   2
Atom  30C    basis set group =>   2
Atom  31C    basis set group =>   2
Atom  32C    basis set group =>   2
Atom  33N    basis set group =>   3
Atom  34C    basis set group =>   2
Atom  35C    basis set group =>   2
Atom  36C    basis set group =>   2
Atom  37C    basis set group =>   2
Atom  38C    basis set group =>   2
Atom  39C    basis set group =>   2
Atom  40O    basis set group =>   4
Atom  41C    basis set group =>   2
Atom  42C    basis set group =>   2
Atom  43O    basis set group =>   4
Atom  44O    basis set group =>   4
Atom  45C    basis set group =>   2
Atom  46C    basis set group =>   2
Atom  47C    basis set group =>   2
Atom  48C    basis set group =>   2
Atom  49C    basis set group =>   2
Atom  50C    basis set group =>   2
Atom  51C    basis set group =>   2
Atom  52C    basis set group =>   2
Atom  53C    basis set group =>   2
Atom  54C    basis set group =>   2
Atom  55C    basis set group =>   2
Atom  56C    basis set group =>   2
Atom  57C    basis set group =>   2
Atom  58C    basis set group =>   2
Atom  59C    basis set group =>   2
Atom  60C    basis set group =>   2
Atom  61C    basis set group =>   2
Atom  62C    basis set group =>   2
Atom  63C    basis set group =>   2
Atom  64C    basis set group =>   2
Atom  65C    basis set group =>   2
Atom  66H    basis set group =>   5
Atom  67H    basis set group =>   5
Atom  68H    basis set group =>   5
Atom  69H    basis set group =>   5
Atom  70H    basis set group =>   5
Atom  71H    basis set group =>   5
Atom  72H    basis set group =>   5
Atom  73H    basis set group =>   5
Atom  74H    basis set group =>   5
Atom  75H    basis set group =>   5
Atom  76H    basis set group =>   5
Atom  77H    basis set group =>   5
Atom  78H    basis set group =>   5
Atom  79H    basis set group =>   5
Atom  80H    basis set group =>   5
Atom  81H    basis set group =>   5
Atom  82H    basis set group =>   5
Atom  83H    basis set group =>   5
Atom  84H    basis set group =>   5
Atom  85H    basis set group =>   5
Atom  86H    basis set group =>   5
Atom  87H    basis set group =>   5
Atom  88H    basis set group =>   5
Atom  89H    basis set group =>   5
Atom  90H    basis set group =>   5
Atom  91H    basis set group =>   5
Atom  92H    basis set group =>   5
Atom  93H    basis set group =>   5
Atom  94H    basis set group =>   5
Atom  95H    basis set group =>   5
Atom  96H    basis set group =>   5
Atom  97H    basis set group =>   5
Atom  98H    basis set group =>   5
Atom  99H    basis set group =>   5
Atom 100H    basis set group =>   5
Atom 101H    basis set group =>   5
Atom 102H    basis set group =>   5
Atom 103H    basis set group =>   5
Atom 104H    basis set group =>   5
Atom 105H    basis set group =>   5
Atom 106H    basis set group =>   5
Atom 107H    basis set group =>   5
Atom 108H    basis set group =>   5
Atom 109H    basis set group =>   5
Atom 110H    basis set group =>   5
Atom 111H    basis set group =>   5
Atom 112H    basis set group =>   5
Atom 113H    basis set group =>   5
Atom 114H    basis set group =>   5
Atom 115H    basis set group =>   5
Atom 116H    basis set group =>   5
Atom 117H    basis set group =>   5
Atom 118H    basis set group =>   5
Atom 119H    basis set group =>   5
Atom 120H    basis set group =>   5
Atom 121H    basis set group =>   5
Atom 122H    basis set group =>   5
Atom 123H    basis set group =>   5
Atom 124H    basis set group =>   5
Atom 125H    basis set group =>   5
Atom 126H    basis set group =>   5
Atom 127H    basis set group =>   5
Atom 128H    basis set group =>   5
Atom 129H    basis set group =>   5
Atom 130H    basis set group =>   5
Atom 131H    basis set group =>   5
Atom 132H    basis set group =>   5
Atom 133H    basis set group =>   5
Atom 134H    basis set group =>   5
Atom 135H    basis set group =>   5
Atom 136H    basis set group =>   5
Atom 137H    basis set group =>   5
Atom 138H    basis set group =>   5
Atom 139H    basis set group =>   5
---------------------------------
AUXILIARY/J BASIS SET INFORMATION
---------------------------------
There are 5 groups of distinct atoms

 Group   1 Type Mg  : 14s5p5d2f1g contracted to 8s4p4d1f1g pattern {71111111/2111/2111/2/1}
 Group   2 Type C   : 12s5p4d2f1g contracted to 6s4p3d1f1g pattern {711111/2111/211/2/1}
 Group   3 Type N   : 12s5p4d2f1g contracted to 6s4p3d1f1g pattern {711111/2111/211/2/1}
 Group   4 Type O   : 12s5p4d2f1g contracted to 6s4p3d1f1g pattern {711111/2111/211/2/1}
 Group   5 Type H   : 5s2p1d contracted to 3s1p1d pattern {311/2/1}

Atom   0Mg   basis set group =>   1
Atom   1C    basis set group =>   2
Atom   2C    basis set group =>   2
Atom   3C    basis set group =>   2
Atom   4C    basis set group =>   2
Atom   5N    basis set group =>   3
Atom   6C    basis set group =>   2
Atom   7C    basis set group =>   2
Atom   8C    basis set group =>   2
Atom   9C    basis set group =>   2
Atom  10C    basis set group =>   2
Atom  11C    basis set group =>   2
Atom  12C    basis set group =>   2
Atom  13C    basis set group =>   2
Atom  14O    basis set group =>   4
Atom  15O    basis set group =>   4
Atom  16N    basis set group =>   3
Atom  17C    basis set group =>   2
Atom  18C    basis set group =>   2
Atom  19C    basis set group =>   2
Atom  20C    basis set group =>   2
Atom  21C    basis set group =>   2
Atom  22C    basis set group =>   2
Atom  23O    basis set group =>   4
Atom  24C    basis set group =>   2
Atom  25N    basis set group =>   3
Atom  26C    basis set group =>   2
Atom  27C    basis set group =>   2
Atom  28C    basis set group =>   2
Atom  29C    basis set group =>   2
Atom  30C    basis set group =>   2
Atom  31C    basis set group =>   2
Atom  32C    basis set group =>   2
Atom  33N    basis set group =>   3
Atom  34C    basis set group =>   2
Atom  35C    basis set group =>   2
Atom  36C    basis set group =>   2
Atom  37C    basis set group =>   2
Atom  38C    basis set group =>   2
Atom  39C    basis set group =>   2
Atom  40O    basis set group =>   4
Atom  41C    basis set group =>   2
Atom  42C    basis set group =>   2
Atom  43O    basis set group =>   4
Atom  44O    basis set group =>   4
Atom  45C    basis set group =>   2
Atom  46C    basis set group =>   2
Atom  47C    basis set group =>   2
Atom  48C    basis set group =>   2
Atom  49C    basis set group =>   2
Atom  50C    basis set group =>   2
Atom  51C    basis set group =>   2
Atom  52C    basis set group =>   2
Atom  53C    basis set group =>   2
Atom  54C    basis set group =>   2
Atom  55C    basis set group =>   2
Atom  56C    basis set group =>   2
Atom  57C    basis set group =>   2
Atom  58C    basis set group =>   2
Atom  59C    basis set group =>   2
Atom  60C    basis set group =>   2
Atom  61C    basis set group =>   2
Atom  62C    basis set group =>   2
Atom  63C    basis set group =>   2
Atom  64C    basis set group =>   2
Atom  65C    basis set group =>   2
Atom  66H    basis set group =>   5
Atom  67H    basis set group =>   5
Atom  68H    basis set group =>   5
Atom  69H    basis set group =>   5
Atom  70H    basis set group =>   5
Atom  71H    basis set group =>   5
Atom  72H    basis set group =>   5
Atom  73H    basis set group =>   5
Atom  74H    basis set group =>   5
Atom  75H    basis set group =>   5
Atom  76H    basis set group =>   5
Atom  77H    basis set group =>   5
Atom  78H    basis set group =>   5
Atom  79H    basis set group =>   5
Atom  80H    basis set group =>   5
Atom  81H    basis set group =>   5
Atom  82H    basis set group =>   5
Atom  83H    basis set group =>   5
Atom  84H    basis set group =>   5
Atom  85H    basis set group =>   5
Atom  86H    basis set group =>   5
Atom  87H    basis set group =>   5
Atom  88H    basis set group =>   5
Atom  89H    basis set group =>   5
Atom  90H    basis set group =>   5
Atom  91H    basis set group =>   5
Atom  92H    basis set group =>   5
Atom  93H    basis set group =>   5
Atom  94H    basis set group =>   5
Atom  95H    basis set group =>   5
Atom  96H    basis set group =>   5
Atom  97H    basis set group =>   5
Atom  98H    basis set group =>   5
Atom  99H    basis set group =>   5
Atom 100H    basis set group =>   5
Atom 101H    basis set group =>   5
Atom 102H    basis set group =>   5
Atom 103H    basis set group =>   5
Atom 104H    basis set group =>   5
Atom 105H    basis set group =>   5
Atom 106H    basis set group =>   5
Atom 107H    basis set group =>   5
Atom 108H    basis set group =>   5
Atom 109H    basis set group =>   5
Atom 110H    basis set group =>   5
Atom 111H    basis set group =>   5
Atom 112H    basis set group =>   5
Atom 113H    basis set group =>   5
Atom 114H    basis set group =>   5
Atom 115H    basis set group =>   5
Atom 116H    basis set group =>   5
Atom 117H    basis set group =>   5
Atom 118H    basis set group =>   5
Atom 119H    basis set group =>   5
Atom 120H    basis set group =>   5
Atom 121H    basis set group =>   5
Atom 122H    basis set group =>   5
Atom 123H    basis set group =>   5
Atom 124H    basis set group =>   5
Atom 125H    basis set group =>   5
Atom 126H    basis set group =>   5
Atom 127H    basis set group =>   5
Atom 128H    basis set group =>   5
Atom 129H    basis set group =>   5
Atom 130H    basis set group =>   5
Atom 131H    basis set group =>   5
Atom 132H    basis set group =>   5
Atom 133H    basis set group =>   5
Atom 134H    basis set group =>   5
Atom 135H    basis set group =>   5
Atom 136H    basis set group =>   5
Atom 137H    basis set group =>   5
Atom 138H    basis set group =>   5
Atom 139H    basis set group =>   5


           ************************************************************
           *        Program running with 4 parallel MPI-processes     *
           *              working on a common directory               *
           ************************************************************
------------------------------------------------------------------------------
                             ORCA STARTUP CALCULATIONS
                           -- RI-GTO INTEGRALS CHOSEN --
------------------------------------------------------------------------------
------------------------------------------------------------------------------
                   ___                                                        
                  /   \      - P O W E R E D   B Y -                         
                 /     \                                                     
                 |  |  |   _    _      __       _____    __    __             
                 |  |  |  | |  | |    /  \     |  _  \  |  |  /  |          
                  \  \/   | |  | |   /    \    | | | |  |  | /  /          
                 / \  \   | |__| |  /  /\  \   | |_| |  |  |/  /          
                |  |  |   |  __  | /  /__\  \  |    /   |      \           
                |  |  |   | |  | | |   __   |  |    \   |  |\   \          
                \     /   | |  | | |  |  |  |  | |\  \  |  | \   \       
                 \___/    |_|  |_| |__|  |__|  |_| \__\ |__|  \__/        
                                                                              
                      - O R C A' S   B I G   F R I E N D -                    
                                      &                                       
                       - I N T E G R A L  F E E D E R -                       
                                                                              
 v1 FN, 2020, v2 2021, v3 2022-2024                                           
------------------------------------------------------------------------------


----------------------
SHARK INTEGRAL PACKAGE
----------------------

Number of atoms                             ...    140
Number of basis functions                   ...   2491
Number of shells                            ...   1023
Maximum angular momentum                    ...      3
Integral batch strategy                     ... SHARK/LIBINT Hybrid
RI-J (if used) integral strategy            ... SPLIT-RIJ (Revised 2003 algorithm where possible)
Printlevel                                  ...      1
Contraction scheme used                     ... SEGMENTED contraction
Prescreening option                         ... SCHWARTZ
   Thresh                                   ... 2.500e-11
   Tcut                                     ... 2.500e-12
   Tpresel                                  ... 2.500e-12 
Coulomb Range Separation                    ... NOT USED
Exchange Range Separation                   ... NOT USED
Multipole approximations                    ... NOT USED
Finite Nucleus Model                        ... NOT USED
CABS basis                                  ... NOT available
Auxiliary Coulomb fitting basis             ... AVAILABLE
   # of basis functions in Aux-J            ...   4055
   # of shells in Aux-J                     ...   1363
   Maximum angular momentum in Aux-J        ...      4
Auxiliary J/K fitting basis                 ... NOT available
Auxiliary Correlation fitting basis         ... NOT available
Auxiliary 'external' fitting basis          ... NOT available

Checking pre-screening integrals            ... done (  0.0 sec) Dimension = 1023
   => SHARK Basis and OBASIS are compatible. Storing Pre-screening
Shell pair information
Shell pair cut-off parameter TPreSel        ...   2.5e-12
Total number of shell pairs                 ...    523776
Shell pairs after pre-screening             ...    164136
Total number of primitive shell pairs       ...   1567252
Primitive shell pairs kept                  ...    307296
          la=0 lb=0:  46449 shell pairs
          la=1 lb=0:  50218 shell pairs
          la=1 lb=1:  13669 shell pairs
          la=2 lb=0:  21579 shell pairs
          la=2 lb=1:  11988 shell pairs
          la=2 lb=2:   2659 shell pairs
          la=3 lb=0:   9541 shell pairs
          la=3 lb=1:   5353 shell pairs
          la=3 lb=2:   2192 shell pairs
          la=3 lb=3:    488 shell pairs

Checking whether 4 symmetric matrices of dimension 2491 fit in memory
:Max Core in MB      =   2200.00
 MB in use           =    194.75
 MB left             =   2005.25
 MB needed           =     94.72
 Data fit in memory  = YES
Calculating RI/J V-Matrix + Cholesky decomp.... done (  1.7 sec)
Calculating Nuclear repulsion               ... done (  0.0 sec) ENN=   9704.014104954542 Eh

Diagonalization of the overlap matrix:
Smallest eigenvalue                        ... 3.958e-06
Time for diagonalization                   ...    2.952 sec
Threshold for overlap eigenvalues          ... 1.000e-07
Number of eigenvalues below threshold      ... 0
Time for construction of square roots      ...    2.777 sec
Total time needed                          ...    5.811 sec

-------------------
DFT GRID GENERATION
-------------------

General Integration Accuracy     IntAcc      ... 4.959
Radial Grid Type                 RadialGrid  ... OptM3 with GC (2021)
Angular Grid (max. ang.)         AngularGrid ... 6 (Lebedev-590)
Angular grid pruning method      GridPruning ... 4 (adaptive)
Weight generation scheme         WeightScheme... mBecke (2022)
Basis function cutoff            BFCut       ... 1.0000e-11
Integration weight cutoff        WCut        ... 1.0000e-14
Partially contracted basis set               ... off
Rotationally invariant grid construction     ... off
Angular grids for H and He will be reduced by one unit

Total number of grid points                  ...  1550343
Total number of batches                      ...    24295
Average number of points per batch           ...       63
Average number of grid points per atom       ...    11074

--------------------
COSX GRID GENERATION
--------------------

GRIDX 1
-------
General Integration Accuracy     IntAcc      ... 4.020
Radial Grid Type                 RadialGrid  ... OptM3 with GC (2021)
Angular Grid (max. ang.)         AngularGrid ... 2 (Lebedev-110)
Angular grid pruning method      GridPruning ... 4 (adaptive)
Weight generation scheme         WeightScheme... mBecke (2022)
Basis function cutoff            BFCut       ... 1.0000e-11
Integration weight cutoff        WCut        ... 1.0000e-14
Partially contracted basis set               ... on
Rotationally invariant grid construction     ... off
Angular grids for H and He will be reduced by one unit

Total number of grid points                  ...   166667
Total number of batches                      ...     1381
Average number of points per batch           ...      120
Average number of grid points per atom       ...     1190
UseSFitting                                  ... on

GRIDX 2
-------
General Integration Accuracy     IntAcc      ... 4.338
Radial Grid Type                 RadialGrid  ... OptM3 with GC (2021)
Angular Grid (max. ang.)         AngularGrid ... 3 (Lebedev-194)
Angular grid pruning method      GridPruning ... 4 (adaptive)
Weight generation scheme         WeightScheme... mBecke (2022)
Basis function cutoff            BFCut       ... 1.0000e-11
Integration weight cutoff        WCut        ... 1.0000e-14
Partially contracted basis set               ... on
Rotationally invariant grid construction     ... off
Angular grids for H and He will be reduced by one unit

Total number of grid points                  ...   361890
Total number of batches                      ...     2898
Average number of points per batch           ...      124
Average number of grid points per atom       ...     2585
UseSFitting                                  ... on

GRIDX 3
-------
General Integration Accuracy     IntAcc      ... 4.871
Radial Grid Type                 RadialGrid  ... OptM3 with GC (2021)
Angular Grid (max. ang.)         AngularGrid ... 4 (Lebedev-302)
Angular grid pruning method      GridPruning ... 4 (adaptive)
Weight generation scheme         WeightScheme... mBecke (2022)
Basis function cutoff            BFCut       ... 1.0000e-11
Integration weight cutoff        WCut        ... 1.0000e-14
Partially contracted basis set               ... on
Rotationally invariant grid construction     ... off
Angular grids for H and He will be reduced by one unit

Total number of grid points                  ...   686566
Total number of batches                      ...     5439
Average number of points per batch           ...      126
Average number of grid points per atom       ...     4904
UseSFitting                                  ... on
Grids setup in  71.9 sec
Initializing property integral containers    ... done (  0.0 sec)

SHARK setup successfully completed in  83.6 seconds

Maximum memory used throughout the entire STARTUP-calculation: 552.1 MB


           ************************************************************
           *        Program running with 4 parallel MPI-processes     *
           *              working on a common directory               *
           ************************************************************
-------------------------------------------------------------------------------
                                 ORCA GUESS
                   Start orbitals & Density for SCF / CASSCF
-------------------------------------------------------------------------------

------------
SCF SETTINGS
------------
Hamiltonian:
 Density Functional     Method          .... DFT(GTOs)
 Exchange Functional    Exchange        .... M062X
 Correlation Functional Correlation     .... M062X
 Gradients option       PostSCFGGA      .... off
 Hybrid DFT is turned on
   Fraction HF Exchange ScalHFX         ....  0.540000
   Scaling of DF-GGA-X  ScalDFX         ....  0.460000
   Scaling of DF-GGA-C  ScalDFC         ....  1.000000
   Scaling of DF-LDA-C  ScalLDAC        ....  1.000000
   Perturbative correction              ....  0.000000
 RI-approximation to the Coulomb term is turned on
   Number of AuxJ basis functions       .... 4055
   RIJ-COSX (HFX calculated with COS-X)).... on


General Settings:
 Integral files         IntName         .... tddft
 Hartree-Fock type      HFTyp           .... RHF
 Total Charge           Charge          ....    0
 Multiplicity           Mult            ....    1
 Number of Electrons    NEL             ....  492
 Basis Dimension        Dim             .... 2491
 Nuclear Repulsion      ENuc            ....   9704.0141049545 Eh

Convergence Acceleration:
 AO-DIIS                CNVDIIS         .... on
   Start iteration      DIISMaxIt       ....    12
   Startup error        DIISStart       ....  0.200000
   # of expansion vecs  DIISMaxEq       ....     5
   Bias factor          DIISBfac        ....   1.050
   Max. coefficient     DIISMaxC        ....  10.000
 MO-DIIS                CNVKDIIS        .... off
 Trust-Rad. Augm. Hess. CNVTRAH         .... auto
   Auto Start mean grad. ratio tolernc. ....  1.125000
   Auto Start start iteration           ....    50
   Auto Start num. interpolation iter.  ....    10
   Max. Number of Micro iterations      ....    24
   Max. Number of Macro iterations      .... Maxiter - #DIIS iter
   Number of Davidson start vectors     ....     2
   Converg. threshold    (grad. norm)   ....   1.000e-05
   Grad. Scal. Fac. for Micro threshold ....   0.100
   Minimum threshold for Micro iter.    ....   1.000e-02
   NR start threshold (gradient norm)   ....   1.000e-04
   Initial trust radius                 ....   0.400
   Minimum AH scaling param. (alpha)    ....   1.000
   Maximum AH scaling param. (alpha)    .... 1000.000
   Quad. conv. algorithm                .... NR
   White noise on init. David. guess    .... on
   Maximum white noise                  ....   0.010
   Pseudo random numbers                .... off
   Inactive MOs                         .... canonical
   Orbital update algorithm             .... Taylor
   Preconditioner                       .... Diag
   Full preconditioner red. dimension   ....   250
 SOSCF                 CNVSOSCF           .... on
   Start iteration     SOSCFMaxIt         ....   150
   Startup grad/error  SOSCFStart         ....  0.003300
   Hessian update      SOSCFHessUp        .... L-BFGS
   Autom. constraints  SOSCFAutoConstrain .... off
 Level Shifting         CNVShift        .... on
   Level shift para.    LevelShift      ....    0.2500
   Turn off err/grad.   ShiftErr        ....    0.0010
 Zerner damping         CNVZerner       .... off
 Static damping         CNVDamp         .... on
   Fraction old density DampFac         ....    0.7000
   Max. Damping (<1)    DampMax         ....    0.9800
   Min. Damping (>=0)   DampMin         ....    0.0000
   Turn off err/grad.   DampErr         ....    0.1000

SCF Procedure:
 Maximum # iterations   MaxIter         ....   125
 SCF integral mode      SCFMode         .... Direct
   Integral package                     .... SHARK and LIBINT hybrid scheme
 Reset frequency        DirectResetFreq ....    20
 Integral Threshold     Thresh          ....  2.500e-11 Eh
 Primitive CutOff       TCut            ....  2.500e-12 Eh

Convergence Tolerance:
 Convergence Check Mode ConvCheckMode   .... Total+1el-Energy
 Convergence forced     ConvForced      .... 1
 Energy Change          TolE            ....  1.000e-08 Eh
 1-El. energy change                    ....  1.000e-05 Eh
 Orbital Gradient       TolG            ....  1.000e-05
 Orbital Rotation angle TolX            ....  1.000e-05
 DIIS Error             TolErr          ....  5.000e-07

------------------------------
INITIAL GUESS: MODEL POTENTIAL
------------------------------
Loading Hartree-Fock densities                     ... done
Calculating cut-offs                               ... done
Initializing the effective Hamiltonian             ... done
Setting up the integral package (SHARK)            ... done
Starting the Coulomb interaction                   ... done (  17.8 sec)
Making the grid                                    ... done (   3.3 sec)
Mapping shells                                     ... done
Starting the XC term evaluation                    ... done (   3.1 sec)
  promolecular density results
     # of electrons  =    491.948447275
     EX              =   -394.535206372
     EC              =    -16.547736374
     EX+EC           =   -411.082942746
Transforming the Hamiltonian                       ... done (   1.4 sec)
Diagonalizing the Hamiltonian                      ... done (   2.0 sec)
Back transforming the eigenvectors                 ... done (   0.9 sec)
Now organizing SCF variables                       ... done
                      ------------------
                      INITIAL GUESS DONE (  29.1 sec)
                      ------------------
             **** ENERGY FILE WAS UPDATED (tddft.en.tmp) ****
Finished Guess after  36.9 sec
Maximum memory used throughout the entire GUESS-calculation: 365.9 MB


           ************************************************************
           *        Program running with 4 parallel MPI-processes     *
           *              working on a common directory               *
           ************************************************************

-------------------------------------------------------------------------------------------
                                      ORCA LEAN-SCF
                              memory conserving SCF solver
-------------------------------------------------------------------------------------------

--------------------
CPCM SOLVATION MODEL
--------------------
CPCM parameters:
  Epsilon                                         ...       8.9990
  Refrac                                          ...       1.4242
  Rsolv                                           ...       1.3000
  Surface type                                    ... GAUSSIAN VDW
  Discretization scheme                           ... Constant charge density
    Threshold for H atoms                         ...       5.0000 (charges/Ang^2)
    Threshold for non-H atoms                     ...       5.0000 (charges/Ang^2)
  Epsilon function type                           ...         CPCM
Solvent:                                          ... DICHLOROMETHANE
Radii:
  Scheme                                          ... Element-dependent radii
  Radius for Mg used is    3.9231 Bohr (=   2.0760 Ang.)
  Radius for C  used is    3.8550 Bohr (=   2.0400 Ang.)
  Radius for N  used is    3.5149 Bohr (=   1.8600 Ang.)
  Radius for O  used is    3.4469 Bohr (=   1.8240 Ang.)
  Radius for H  used is    2.4944 Bohr (=   1.3200 Ang.)
Calculating surface                               ...        done! (  0.1s)
Cavity surface points                             ...        10985
Cavity Volume                                     ...    7536.7882
Cavity Surface-area                               ...    3697.7046
Calculating surface distance matrix               ...        done! (  2.6s)
Performing Cholesky decomposition & store         ...        done! ( 14.5s)
Overall time for CPCM initialization              ...                17.2s

----------------------------------------D-I-I-S--------------------------------------------
Iteration    Energy (Eh)           Delta-E    RMSDP     MaxDP     DIISErr   Damp  Time(sec)
-------------------------------------------------------------------------------------------
               ***  Starting incremental Fock matrix formation  ***
    1    -3008.9624248919881211     0.00e+00  1.64e-03  1.46e-01  2.87e-01  0.700 566.5
    2    -3009.7888963534533104    -8.26e-01  1.46e-03  1.84e-01  1.38e-01  0.700 274.7
                               ***Turning on AO-DIIS***
    3    -3010.1841392416718008    -3.95e-01  8.51e-04  8.17e-02  5.38e-02  0.700 267.4
    4    -3010.4166712427049788    -2.33e-01  1.83e-03  1.16e-01  4.14e-02  0.000 273.5
    5    -3010.9137063912912708    -4.97e-01  2.35e-04  3.49e-02  6.99e-03  0.000 283.0
    6    -3010.9149045219201071    -1.20e-03  8.26e-05  9.65e-03  3.65e-03  0.000 240.5
                              *** Initializing SOSCF ***
---------------------------------------S-O-S-C-F--------------------------------------
Iteration    Energy (Eh)           Delta-E    RMSDP     MaxDP     MaxGrad    Time(sec)
--------------------------------------------------------------------------------------
    7    -3010.9150984148727730    -1.94e-04  3.94e-05  4.10e-03  8.54e-04   204.0
               *** Restarting incremental Fock matrix formation ***
    8    -3010.9151345556110755    -3.61e-05  8.77e-05  6.57e-03  7.57e-04   674.2
    9    -3010.9151602788679156    -2.57e-05  5.57e-05  4.29e-03  2.36e-04   462.6
   10    -3010.9151668464382965    -6.57e-06  4.08e-05  3.15e-03  1.60e-04   428.2
   11    -3010.9151705978511018    -3.75e-06  1.59e-05  1.15e-03  8.38e-05   409.5
   12    -3010.9151711959057138    -5.98e-07  6.91e-06  4.83e-04  4.22e-05   337.7
   13    -3010.9151716425676568    -4.47e-07  5.72e-06  4.93e-04  2.24e-05   301.2
   14    -3010.9151715858934040     5.67e-08  1.80e-06  1.12e-04  1.21e-05   291.6
   15    -3010.9151713861920143     2.00e-07  2.21e-06  3.61e-04  5.42e-06   212.1
   16    -3010.9151715088137280    -1.23e-07  1.19e-06  1.17e-04  2.55e-06   228.1
   17    -3010.9151714720283053     3.68e-08  2.18e-06  1.91e-04  9.75e-07   200.9
                  *** Gradient check signals convergence ***

               *****************************************************
               *                     SUCCESS                       *
               *           SCF CONVERGED AFTER  17 CYCLES          *
               *****************************************************

Recomputing exchange energy using gridx3       ... done (  970.311 sec)
Old exchange energy                            :   -218.153815224 Eh
New exchange energy                            :   -218.153776475 Eh
Exchange energy change after final integration :      0.000038749 Eh
Total energy after final integration           :  -3010.915132538 Eh
             **** ENERGY FILE WAS UPDATED (tddft.en.tmp) ****

----------------
TOTAL SCF ENERGY
----------------

Total Energy       :      -3010.91513253787161 Eh          -81931.16606 eV

Components:
Nuclear Repulsion  :       9704.01410495454184 Eh          264059.64833 eV
Electronic Energy  :     -12714.88412568255444 Eh         -345989.58683 eV
One Electron Energy:     -23428.46724313909363 Eh         -637521.00463 eV
Two Electron Energy:      10713.58311745653918 Eh          291531.41780 eV
CPCM Dielectric    :         -0.04515055919169 Eh              -1.22861 eV

Virial components:
Potential Energy   :      -6006.71661811185913 Eh         -163451.06887 eV
Kinetic Energy     :       2995.80148557398707 Eh           81519.90281 eV
Virial Ratio       :          2.00504494274292

DFT components:
N(Alpha)           :      245.999982985170 electrons
N(Beta)            :      245.999982985170 electrons
N(Total)           :      491.999965970339 electrons
E(XC)              :     -203.454053999672 Eh       

CPCM Solvation Model Properties:
Surface-charge          :         -0.07017644920615
Corrected charge        :          0.00000000000000
Outlying charge corr.   :          0.00013439108368 Eh               0.00366 eV
Free-energy (cav+disp)  :  This term is not implemented in the current solvation scheme

---------------
SCF CONVERGENCE
---------------

  Last Energy change         ...   -3.6785e-08  Tolerance :   1.0000e-08
  Last MAX-Density change    ...    1.9107e-04  Tolerance :   1.0000e-07
  Last RMS-Density change    ...    2.1753e-06  Tolerance :   5.0000e-09
  Last DIIS Error            ...    8.5384e-04  Tolerance :   5.0000e-07
  Last Orbital Gradient      ...    9.7468e-07  Tolerance :   1.0000e-05
  Last Orbital Rotation      ...    1.6432e-05  Tolerance :   1.0000e-05


----------------
ORBITAL ENERGIES
----------------

  NO   OCC          E(Eh)            E(eV) 
   0   2.0000     -47.526488     -1293.2615 
   1   2.0000     -19.680393      -535.5307 
   2   2.0000     -19.672494      -535.3158 
   3   2.0000     -19.629156      -534.1365 
   4   2.0000     -19.628698      -534.1240 
   5   2.0000     -19.622364      -533.9517 
   6   2.0000     -19.618886      -533.8570 
   7   2.0000     -14.771023      -401.9400 
   8   2.0000     -14.765709      -401.7954 
   9   2.0000     -14.746323      -401.2678 
  10   2.0000     -14.742950      -401.1761 
  11   2.0000     -10.684242      -290.7330 
  12   2.0000     -10.676405      -290.5197 
  13   2.0000     -10.647454      -289.7320 
  14   2.0000     -10.637996      -289.4746 
  15   2.0000     -10.592241      -288.2295 
  16   2.0000     -10.589039      -288.1424 
  17   2.0000     -10.587199      -288.0923 
  18   2.0000     -10.586559      -288.0749 
  19   2.0000     -10.585953      -288.0584 
  20   2.0000     -10.585488      -288.0458 
  21   2.0000     -10.582979      -287.9775 
  22   2.0000     -10.582180      -287.9558 
  23   2.0000     -10.576584      -287.8035 
  24   2.0000     -10.572324      -287.6876 
  25   2.0000     -10.569348      -287.6066 
  26   2.0000     -10.567167      -287.5472 
  27   2.0000     -10.561113      -287.3825 
  28   2.0000     -10.557246      -287.2773 
  29   2.0000     -10.551300      -287.1155 
  30   2.0000     -10.550462      -287.0927 
  31   2.0000     -10.550365      -287.0900 
  32   2.0000     -10.549030      -287.0537 
  33   2.0000     -10.548061      -287.0273 
  34   2.0000     -10.545744      -286.9643 
  35   2.0000     -10.545119      -286.9473 
  36   2.0000     -10.543218      -286.8955 
  37   2.0000     -10.542283      -286.8701 
  38   2.0000     -10.541797      -286.8569 
  39   2.0000     -10.537706      -286.7456 
  40   2.0000     -10.537371      -286.7364 
  41   2.0000     -10.537295      -286.7344 
  42   2.0000     -10.532659      -286.6082 
  43   2.0000     -10.532637      -286.6076 
  44   2.0000     -10.532295      -286.5983 
  45   2.0000     -10.529255      -286.5156 
  46   2.0000     -10.529114      -286.5117 
  47   2.0000     -10.529084      -286.5109 
  48   2.0000     -10.528260      -286.4885 
  49   2.0000     -10.527726      -286.4740 
  50   2.0000     -10.527421      -286.4657 
  51   2.0000     -10.526419      -286.4384 
  52   2.0000     -10.526055      -286.4285 
  53   2.0000     -10.525505      -286.4135 
  54   2.0000     -10.521023      -286.2916 
  55   2.0000     -10.519148      -286.2406 
  56   2.0000     -10.519130      -286.2401 
  57   2.0000     -10.518787      -286.2307 
  58   2.0000     -10.518733      -286.2293 
  59   2.0000     -10.518461      -286.2219 
  60   2.0000     -10.518395      -286.2201 
  61   2.0000     -10.518182      -286.2143 
  62   2.0000     -10.513919      -286.0983 
  63   2.0000     -10.513637      -286.0906 
  64   2.0000     -10.513454      -286.0856 
  65   2.0000     -10.512937      -286.0716 
  66   2.0000      -3.281174       -89.2853 
  67   2.0000      -1.976052       -53.7711 
  68   2.0000      -1.972872       -53.6846 
  69   2.0000      -1.972469       -53.6736 
  70   2.0000      -1.244641       -33.8684 
  71   2.0000      -1.235343       -33.6154 
  72   2.0000      -1.180130       -32.1130 
  73   2.0000      -1.170451       -31.8496 
  74   2.0000      -1.152882       -31.3715 
  75   2.0000      -1.145269       -31.1644 
  76   2.0000      -1.084706       -29.5164 
  77   2.0000      -1.074742       -29.2452 
  78   2.0000      -1.074087       -29.2274 
  79   2.0000      -1.063837       -28.9485 
  80   2.0000      -0.956482       -26.0272 
  81   2.0000      -0.931583       -25.3497 
  82   2.0000      -0.922450       -25.1011 
  83   2.0000      -0.920224       -25.0406 
  84   2.0000      -0.917140       -24.9567 
  85   2.0000      -0.911287       -24.7974 
  86   2.0000      -0.907311       -24.6892 
  87   2.0000      -0.905382       -24.6367 
  88   2.0000      -0.901214       -24.5233 
  89   2.0000      -0.898472       -24.4487 
  90   2.0000      -0.894507       -24.3408 
  91   2.0000      -0.880389       -23.9566 
  92   2.0000      -0.867520       -23.6064 
  93   2.0000      -0.861946       -23.4547 
  94   2.0000      -0.855176       -23.2705 
  95   2.0000      -0.845573       -23.0092 
  96   2.0000      -0.839777       -22.8515 
  97   2.0000      -0.837560       -22.7912 
  98   2.0000      -0.829654       -22.5760 
  99   2.0000      -0.825283       -22.4571 
 100   2.0000      -0.813180       -22.1278 
 101   2.0000      -0.805884       -21.9292 
 102   2.0000      -0.797104       -21.6903 
 103   2.0000      -0.791270       -21.5316 
 104   2.0000      -0.780725       -21.2446 
 105   2.0000      -0.773146       -21.0384 
 106   2.0000      -0.767572       -20.8867 
 107   2.0000      -0.766609       -20.8605 
 108   2.0000      -0.762882       -20.7591 
 109   2.0000      -0.756946       -20.5975 
 110   2.0000      -0.749381       -20.3917 
 111   2.0000      -0.743962       -20.2442 
 112   2.0000      -0.732735       -19.9387 
 113   2.0000      -0.720708       -19.6115 
 114   2.0000      -0.706356       -19.2209 
 115   2.0000      -0.704399       -19.1677 
 116   2.0000      -0.701322       -19.0840 
 117   2.0000      -0.690184       -18.7809 
 118   2.0000      -0.675315       -18.3763 
 119   2.0000      -0.664598       -18.0846 
 120   2.0000      -0.661322       -17.9955 
 121   2.0000      -0.658093       -17.9076 
 122   2.0000      -0.651525       -17.7289 
 123   2.0000      -0.651088       -17.7170 
 124   2.0000      -0.645055       -17.5529 
 125   2.0000      -0.637520       -17.3478 
 126   2.0000      -0.637392       -17.3443 
 127   2.0000      -0.632483       -17.2107 
 128   2.0000      -0.623802       -16.9745 
 129   2.0000      -0.614353       -16.7174 
 130   2.0000      -0.608702       -16.5636 
 131   2.0000      -0.603770       -16.4294 
 132   2.0000      -0.601818       -16.3763 
 133   2.0000      -0.598681       -16.2909 
 134   2.0000      -0.591442       -16.0939 
 135   2.0000      -0.589350       -16.0370 
 136   2.0000      -0.587736       -15.9931 
 137   2.0000      -0.575935       -15.6720 
 138   2.0000      -0.572528       -15.5793 
 139   2.0000      -0.569542       -15.4980 
 140   2.0000      -0.564019       -15.3477 
 141   2.0000      -0.562980       -15.3195 
 142   2.0000      -0.560613       -15.2551 
 143   2.0000      -0.551440       -15.0054 
 144   2.0000      -0.549171       -14.9437 
 145   2.0000      -0.546653       -14.8752 
 146   2.0000      -0.545952       -14.8561 
 147   2.0000      -0.541171       -14.7260 
 148   2.0000      -0.536025       -14.5860 
 149   2.0000      -0.532396       -14.4872 
 150   2.0000      -0.529817       -14.4171 
 151   2.0000      -0.528992       -14.3946 
 152   2.0000      -0.526941       -14.3388 
 153   2.0000      -0.522793       -14.2259 
 154   2.0000      -0.518934       -14.1209 
 155   2.0000      -0.517889       -14.0925 
 156   2.0000      -0.514686       -14.0053 
 157   2.0000      -0.510563       -13.8931 
 158   2.0000      -0.507404       -13.8072 
 159   2.0000      -0.506075       -13.7710 
 160   2.0000      -0.505754       -13.7623 
 161   2.0000      -0.504553       -13.7296 
 162   2.0000      -0.501767       -13.6538 
 163   2.0000      -0.500196       -13.6110 
 164   2.0000      -0.499211       -13.5842 
 165   2.0000      -0.494162       -13.4468 
 166   2.0000      -0.493203       -13.4207 
 167   2.0000      -0.488963       -13.3054 
 168   2.0000      -0.487517       -13.2660 
 169   2.0000      -0.484745       -13.1906 
 170   2.0000      -0.482406       -13.1269 
 171   2.0000      -0.481184       -13.0937 
 172   2.0000      -0.480511       -13.0754 
 173   2.0000      -0.478909       -13.0318 
 174   2.0000      -0.476659       -12.9706 
 175   2.0000      -0.473507       -12.8848 
 176   2.0000      -0.471145       -12.8205 
 177   2.0000      -0.468733       -12.7549 
 178   2.0000      -0.467886       -12.7318 
 179   2.0000      -0.464772       -12.6471 
 180   2.0000      -0.463345       -12.6083 
 181   2.0000      -0.461330       -12.5534 
 182   2.0000      -0.459501       -12.5037 
 183   2.0000      -0.457387       -12.4461 
 184   2.0000      -0.454736       -12.3740 
 185   2.0000      -0.450767       -12.2660 
 186   2.0000      -0.448981       -12.2174 
 187   2.0000      -0.448097       -12.1933 
 188   2.0000      -0.446993       -12.1633 
 189   2.0000      -0.445363       -12.1189 
 190   2.0000      -0.441050       -12.0016 
 191   2.0000      -0.440593       -11.9892 
 192   2.0000      -0.439247       -11.9525 
 193   2.0000      -0.438565       -11.9340 
 194   2.0000      -0.437399       -11.9022 
 195   2.0000      -0.436117       -11.8673 
 196   2.0000      -0.435080       -11.8391 
 197   2.0000      -0.434233       -11.8161 
 198   2.0000      -0.431106       -11.7310 
 199   2.0000      -0.429613       -11.6904 
 200   2.0000      -0.427554       -11.6343 
 201   2.0000      -0.425297       -11.5729 
 202   2.0000      -0.422495       -11.4967 
 203   2.0000      -0.421113       -11.4591 
 204   2.0000      -0.419549       -11.4165 
 205   2.0000      -0.417205       -11.3527 
 206   2.0000      -0.414663       -11.2835 
 207   2.0000      -0.412095       -11.2137 
 208   2.0000      -0.410019       -11.1572 
 209   2.0000      -0.408662       -11.1203 
 210   2.0000      -0.404492       -11.0068 
 211   2.0000      -0.401313       -10.9203 
 212   2.0000      -0.401178       -10.9166 
 213   2.0000      -0.400397       -10.8953 
 214   2.0000      -0.396697       -10.7947 
 215   2.0000      -0.394250       -10.7281 
 216   2.0000      -0.392294       -10.6749 
 217   2.0000      -0.389513       -10.5992 
 218   2.0000      -0.387336       -10.5399 
 219   2.0000      -0.384477       -10.4622 
 220   2.0000      -0.381320       -10.3762 
 221   2.0000      -0.380499       -10.3539 
 222   2.0000      -0.378730       -10.3058 
 223   2.0000      -0.377155       -10.2629 
 224   2.0000      -0.374332       -10.1861 
 225   2.0000      -0.372183       -10.1276 
 226   2.0000      -0.371726       -10.1152 
 227   2.0000      -0.369610       -10.0576 
 228   2.0000      -0.368537       -10.0284 
 229   2.0000      -0.367014        -9.9870 
 230   2.0000      -0.365337        -9.9413 
 231   2.0000      -0.364312        -9.9134 
 232   2.0000      -0.363060        -9.8794 
 233   2.0000      -0.361253        -9.8302 
 234   2.0000      -0.356269        -9.6946 
 235   2.0000      -0.346076        -9.4172 
 236   2.0000      -0.336067        -9.1448 
 237   2.0000      -0.335526        -9.1301 
 238   2.0000      -0.331211        -9.0127 
 239   2.0000      -0.330546        -8.9946 
 240   2.0000      -0.316652        -8.6165 
 241   2.0000      -0.309983        -8.4351 
 242   2.0000      -0.303772        -8.2660 
 243   2.0000      -0.302219        -8.2238 
 244   2.0000      -0.243844        -6.6353 
 245   2.0000      -0.212621        -5.7857 
 246   0.0000      -0.099042        -2.6951 
 247   0.0000      -0.029148        -0.7932 
 248   0.0000      -0.012724        -0.3462 
 249   0.0000       0.004993         0.1359 
 250   0.0000       0.014969         0.4073 
 251   0.0000       0.033954         0.9239 
 252   0.0000       0.035376         0.9626 
 253   0.0000       0.037920         1.0319 
 254   0.0000       0.045271         1.2319 
 255   0.0000       0.053346         1.4516 
 256   0.0000       0.055526         1.5109 
*Only the first 10 virtual orbitals were printed.

                    ********************************
                    * MULLIKEN POPULATION ANALYSIS *
                    ********************************

-----------------------
MULLIKEN ATOMIC CHARGES
-----------------------
   0 Mg:    0.808582
   1 C :   -0.128953
   2 C :   -0.337428
   3 C :   -0.348318
   4 C :   -0.286610
   5 N :   -0.436594
   6 C :    0.260170
   7 C :   -0.115915
   8 C :   -0.155661
   9 C :    0.127464
  10 C :   -0.486182
  11 C :   -0.403958
  12 C :   -0.326643
  13 C :    0.407864
  14 O :   -0.406842
  15 O :   -0.277312
  16 N :   -0.441265
  17 C :    0.275362
  18 C :    0.031462
  19 C :   -0.039550
  20 C :    0.225076
  21 C :   -0.535578
  22 C :    0.277856
  23 O :   -0.405074
  24 C :   -0.517754
  25 N :   -0.370779
  26 C :    0.194789
  27 C :   -0.185209
  28 C :   -0.084524
  29 C :    0.103016
  30 C :   -0.484572
  31 C :   -0.312264
  32 C :   -0.471604
  33 N :   -0.476724
  34 C :    0.217357
  35 C :   -0.017559
  36 C :   -0.012845
  37 C :    0.251513
  38 C :   -0.549752
  39 C :    0.149683
  40 O :   -0.351693
  41 C :   -0.218735
  42 C :    0.381896
  43 O :   -0.386869
  44 O :   -0.270465
  45 C :   -0.282713
  46 C :   -0.229584
  47 C :   -0.179322
  48 C :    0.070686
  49 C :   -0.496984
  50 C :   -0.336247
  51 C :   -0.330839
  52 C :   -0.333564
  53 C :   -0.056969
  54 C :   -0.505403
  55 C :   -0.332210
  56 C :   -0.319483
  57 C :   -0.332203
  58 C :   -0.055624
  59 C :   -0.505947
  60 C :   -0.329298
  61 C :   -0.323450
  62 C :   -0.311525
  63 C :   -0.074033
  64 C :   -0.482635
  65 C :   -0.469397
  66 H :    0.182434
  67 H :    0.207843
  68 H :    0.201966
  69 H :    0.203155
  70 H :    0.189016
  71 H :    0.159189
  72 H :    0.166777
  73 H :    0.165639
  74 H :    0.189514
  75 H :    0.195367
  76 H :    0.199285
  77 H :    0.183849
  78 H :    0.184732
  79 H :    0.193786
  80 H :    0.165238
  81 H :    0.167035
  82 H :    0.181068
  83 H :    0.184167
  84 H :    0.185849
  85 H :    0.175678
  86 H :    0.163275
  87 H :    0.162679
  88 H :    0.160605
  89 H :    0.160302
  90 H :    0.162522
  91 H :    0.160123
  92 H :    0.157063
  93 H :    0.154283
  94 H :    0.165715
  95 H :    0.181598
  96 H :    0.174543
  97 H :    0.210424
  98 H :    0.165948
  99 H :    0.163531
 100 H :    0.166593
 101 H :    0.180497
 102 H :    0.195286
 103 H :    0.165934
 104 H :    0.167170
 105 H :    0.160072
 106 H :    0.176940
 107 H :    0.166067
 108 H :    0.173096
 109 H :    0.170983
 110 H :    0.158131
 111 H :    0.157665
 112 H :    0.159639
 113 H :    0.144677
 114 H :    0.158004
 115 H :    0.152694
 116 H :    0.157090
 117 H :    0.154938
 118 H :    0.158230
 119 H :    0.158820
 120 H :    0.152188
 121 H :    0.154460
 122 H :    0.157750
 123 H :    0.142836
 124 H :    0.158041
 125 H :    0.151986
 126 H :    0.157141
 127 H :    0.154245
 128 H :    0.157134
 129 H :    0.161022
 130 H :    0.151147
 131 H :    0.149555
 132 H :    0.155717
 133 H :    0.131514
 134 H :    0.153448
 135 H :    0.148953
 136 H :    0.154314
 137 H :    0.151882
 138 H :    0.150080
 139 H :    0.147751
Sum of atomic charges:   -0.0000000

--------------------------------
MULLIKEN REDUCED ORBITAL CHARGES
--------------------------------
  0 Mgs       :     4.528647  s :     4.528647
      pz      :     2.084806  p :     6.426781
      px      :     2.190551
      py      :     2.151424
      dz2     :     0.026390  d :     0.235989
      dxz     :     0.038127
      dyz     :     0.017224
      dx2y2   :     0.058877
      dxy     :     0.095371

  1 C s       :     3.309152  s :     3.309152
      pz      :     0.992812  p :     2.727771
      px      :     0.872306
      py      :     0.862653
      dz2     :     0.010905  d :     0.083003
      dxz     :     0.014414
      dyz     :     0.018839
      dx2y2   :     0.020808
      dxy     :     0.018038
      f0      :     0.001115  f :     0.009027
      f+1     :     0.001018
      f-1     :     0.001366
      f+2     :     0.001137
      f-2     :     0.000839
      f+3     :     0.001600
      f-3     :     0.001950

  2 C s       :     3.111888  s :     3.111888
      pz      :     1.057442  p :     3.168610
      px      :     1.021068
      py      :     1.090100
      dz2     :     0.004305  d :     0.050219
      dxz     :     0.021736
      dyz     :     0.005654
      dx2y2   :     0.006456
      dxy     :     0.012068
      f0      :     0.001133  f :     0.006711
      f+1     :     0.000799
      f-1     :     0.000560
      f+2     :     0.000930
      f-2     :     0.000654
      f+3     :     0.001140
      f-3     :     0.001495

  3 C s       :     3.142259  s :     3.142259
      pz      :     1.066501  p :     3.148916
      px      :     1.147732
      py      :     0.934684
      dz2     :     0.009242  d :     0.050498
      dxz     :     0.005714
      dyz     :     0.014642
      dx2y2   :     0.011299
      dxy     :     0.009602
      f0      :     0.000816  f :     0.006645
      f+1     :     0.000691
      f-1     :     0.001299
      f+2     :     0.000688
      f-2     :     0.000755
      f+3     :     0.001305
      f-3     :     0.001089

  4 C s       :     3.131515  s :     3.131515
      pz      :     1.050680  p :     3.091875
      px      :     0.943486
      py      :     1.097709
      dz2     :     0.004111  d :     0.056551
      dxz     :     0.022404
      dyz     :     0.006286
      dx2y2   :     0.010155
      dxy     :     0.013595
      f0      :     0.001176  f :     0.006669
      f+1     :     0.000771
      f-1     :     0.000597
      f+2     :     0.000879
      f-2     :     0.000661
      f+3     :     0.001087
      f-3     :     0.001497

  5 N s       :     3.725316  s :     3.725316
      pz      :     1.264748  p :     3.653851
      px      :     1.085778
      py      :     1.303324
      dz2     :     0.006296  d :     0.053941
      dxz     :     0.013501
      dyz     :     0.006750
      dx2y2   :     0.013488
      dxy     :     0.013907
      f0      :     0.000478  f :     0.003486
      f+1     :     0.000412
      f-1     :     0.000461
      f+2     :     0.000485
      f-2     :     0.000324
      f+3     :     0.000603
      f-3     :     0.000724

  6 C s       :     3.175281  s :     3.175281
      pz      :     0.934244  p :     2.427568
      px      :     0.717113
      py      :     0.776211
      dz2     :     0.008204  d :     0.124434
      dxz     :     0.034513
      dyz     :     0.018419
      dx2y2   :     0.027484
      dxy     :     0.035814
      f0      :     0.001594  f :     0.012547
      f+1     :     0.001262
      f-1     :     0.001204
      f+2     :     0.002044
      f-2     :     0.000890
      f+3     :     0.002218
      f-3     :     0.003335

  7 C s       :     3.232413  s :     3.232413
      pz      :     0.949316  p :     2.770347
      px      :     0.943009
      py      :     0.878022
      dz2     :     0.019361  d :     0.106404
      dxz     :     0.025028
      dyz     :     0.015738
      dx2y2   :     0.029719
      dxy     :     0.016558
      f0      :     0.000777  f :     0.006752
      f+1     :     0.001013
      f-1     :     0.000858
      f+2     :     0.001312
      f-2     :     0.000750
      f+3     :     0.001216
      f-3     :     0.000825

  8 C s       :     3.243248  s :     3.243248
      pz      :     0.957240  p :     2.793837
      px      :     0.906296
      py      :     0.930302
      dz2     :     0.016470  d :     0.111717
      dxz     :     0.030804
      dyz     :     0.025229
      dx2y2   :     0.018166
      dxy     :     0.021048
      f0      :     0.001002  f :     0.006859
      f+1     :     0.001438
      f-1     :     0.001163
      f+2     :     0.000606
      f-2     :     0.000817
      f+3     :     0.001007
      f-3     :     0.000826

  9 C s       :     3.185473  s :     3.185473
      pz      :     0.833010  p :     2.554145
      px      :     0.954621
      py      :     0.766515
      dz2     :     0.013885  d :     0.120247
      dxz     :     0.033210
      dyz     :     0.017241
      dx2y2   :     0.029105
      dxy     :     0.026806
      f0      :     0.001325  f :     0.012671
      f+1     :     0.001260
      f-1     :     0.001640
      f+2     :     0.001642
      f-2     :     0.001398
      f+3     :     0.001572
      f-3     :     0.003834

 10 C s       :     3.355938  s :     3.355938
      pz      :     0.889515  p :     3.074319
      px      :     1.098309
      py      :     1.086494
      dz2     :     0.007826  d :     0.052721
      dxz     :     0.015468
      dyz     :     0.016565
      dx2y2   :     0.005758
      dxy     :     0.007105
      f0      :     0.000820  f :     0.003204
      f+1     :     0.000703
      f-1     :     0.000765
      f+2     :     0.000166
      f-2     :     0.000154
      f+3     :     0.000334
      f-3     :     0.000260

 11 C s       :     3.335650  s :     3.335650
      pz      :     0.916840  p :     2.979673
      px      :     0.993625
      py      :     1.069207
      dz2     :     0.021264  d :     0.083679
      dxz     :     0.017837
      dyz     :     0.015547
      dx2y2   :     0.019808
      dxy     :     0.009223
      f0      :     0.000954  f :     0.004957
      f+1     :     0.000762
      f-1     :     0.000674
      f+2     :     0.000946
      f-2     :     0.000887
      f+3     :     0.000249
      f-3     :     0.000485

 12 C s       :     3.229884  s :     3.229884
      pz      :     0.945295  p :     3.016597
      px      :     1.002169
      py      :     1.069134
      dz2     :     0.019499  d :     0.075388
      dxz     :     0.010044
      dyz     :     0.020856
      dx2y2   :     0.015278
      dxy     :     0.009711
      f0      :     0.000756  f :     0.004773
      f+1     :     0.000846
      f-1     :     0.000724
      f+2     :     0.000805
      f-2     :     0.000893
      f+3     :     0.000232
      f-3     :     0.000518

 13 C s       :     3.053080  s :     3.053080
      pz      :     0.810369  p :     2.240499
      px      :     0.709486
      py      :     0.720643
      dz2     :     0.041417  d :     0.275361
      dxz     :     0.093478
      dyz     :     0.015009
      dx2y2   :     0.045511
      dxy     :     0.079947
      f0      :     0.002684  f :     0.023196
      f+1     :     0.004650
      f-1     :     0.001305
      f+2     :     0.004410
      f-2     :     0.002527
      f+3     :     0.003617
      f-3     :     0.004002

 14 O s       :     3.820869  s :     3.820869
      pz      :     1.673026  p :     4.554013
      px      :     1.360136
      py      :     1.520851
      dz2     :     0.003291  d :     0.029908
      dxz     :     0.008494
      dyz     :     0.000523
      dx2y2   :     0.007799
      dxy     :     0.009801
      f0      :     0.000240  f :     0.002053
      f+1     :     0.000376
      f-1     :     0.000043
      f+2     :     0.000335
      f-2     :     0.000076
      f+3     :     0.000441
      f-3     :     0.000542

 15 O s       :     3.772628  s :     3.772628
      pz      :     1.344019  p :     4.466370
      px      :     1.537754
      py      :     1.584598
      dz2     :     0.006215  d :     0.036265
      dxz     :     0.011993
      dyz     :     0.005332
      dx2y2   :     0.005901
      dxy     :     0.006824
      f0      :     0.000259  f :     0.002050
      f+1     :     0.000300
      f-1     :     0.000435
      f+2     :     0.000361
      f-2     :     0.000392
      f+3     :     0.000150
      f-3     :     0.000152

 16 N s       :     3.696844  s :     3.696844
      pz      :     1.353526  p :     3.689237
      px      :     1.218043
      py      :     1.117669
      dz2     :     0.006662  d :     0.051644
      dxz     :     0.008022
      dyz     :     0.009948
      dx2y2   :     0.013860
      dxy     :     0.013152
      f0      :     0.000538  f :     0.003540
      f+1     :     0.000319
      f-1     :     0.000639
      f+2     :     0.000436
      f-2     :     0.000407
      f+3     :     0.000672
      f-3     :     0.000529

 17 C s       :     3.122366  s :     3.122366
      pz      :     0.891388  p :     2.467314
      px      :     0.857780
      py      :     0.718146
      dz2     :     0.015396  d :     0.122083
      dxz     :     0.026631
      dyz     :     0.024990
      dx2y2   :     0.025162
      dxy     :     0.029903
      f0      :     0.001409  f :     0.012876
      f+1     :     0.000859
      f-1     :     0.002118
      f+2     :     0.001834
      f-2     :     0.001300
      f+3     :     0.003009
      f-3     :     0.002347

 18 C s       :     3.156318  s :     3.156318
      pz      :     0.910320  p :     2.687517
      px      :     0.907759
      py      :     0.869438
      dz2     :     0.013812  d :     0.115930
      dxz     :     0.023874
      dyz     :     0.020455
      dx2y2   :     0.028561
      dxy     :     0.029228
      f0      :     0.001058  f :     0.008772
      f+1     :     0.000747
      f-1     :     0.001324
      f+2     :     0.001212
      f-2     :     0.000872
      f+3     :     0.001149
      f-3     :     0.002410

 19 C s       :     3.180231  s :     3.180231
      pz      :     1.042574  p :     2.767521
      px      :     0.786162
      py      :     0.938785
      dz2     :     0.012210  d :     0.082884
      dxz     :     0.011951
      dyz     :     0.017276
      dx2y2   :     0.024587
      dxy     :     0.016859
      f0      :     0.001158  f :     0.008914
      f+1     :     0.001209
      f-1     :     0.001077
      f+2     :     0.000742
      f-2     :     0.001077
      f+3     :     0.001527
      f-3     :     0.002122

 20 C s       :     3.163038  s :     3.163038
      pz      :     0.905874  p :     2.469819
      px      :     0.710114
      py      :     0.853830
      dz2     :     0.013254  d :     0.129083
      dxz     :     0.034382
      dyz     :     0.022920
      dx2y2   :     0.031681
      dxy     :     0.026847
      f0      :     0.001499  f :     0.012984
      f+1     :     0.001230
      f-1     :     0.001521
      f+2     :     0.001137
      f-2     :     0.002029
      f+3     :     0.003990
      f-3     :     0.001578

 21 C s       :     3.426892  s :     3.426892
      pz      :     1.073677  p :     3.056045
      px      :     1.065711
      py      :     0.916657
      dz2     :     0.009688  d :     0.049658
      dxz     :     0.008908
      dyz     :     0.009119
      dx2y2   :     0.008767
      dxy     :     0.013175
      f0      :     0.000335  f :     0.002984
      f+1     :     0.000495
      f-1     :     0.000355
      f+2     :     0.000304
      f-2     :     0.000384
      f+3     :     0.000525
      f-3     :     0.000586

 22 C s       :     3.138184  s :     3.138184
      pz      :     0.704217  p :     2.359514
      px      :     0.916283
      py      :     0.739014
      dz2     :     0.036034  d :     0.208559
      dxz     :     0.040592
      dyz     :     0.026539
      dx2y2   :     0.051102
      dxy     :     0.054291
      f0      :     0.001228  f :     0.015887
      f+1     :     0.001094
      f-1     :     0.002872
      f+2     :     0.002927
      f-2     :     0.002230
      f+3     :     0.002276
      f-3     :     0.003260

 23 O s       :     3.833781  s :     3.833781
      pz      :     1.406288  p :     4.539949
      px      :     1.765349
      py      :     1.368312
      dz2     :     0.006483  d :     0.029432
      dxz     :     0.003759
      dyz     :     0.006799
      dx2y2   :     0.006626
      dxy     :     0.005765
      f0      :     0.000129  f :     0.001912
      f+1     :     0.000156
      f-1     :     0.000353
      f+2     :     0.000296
      f-2     :     0.000345
      f+3     :     0.000303
      f-3     :     0.000329

 24 C s       :     3.353526  s :     3.353526
      pz      :     1.028645  p :     3.120176
      px      :     1.037750
      py      :     1.053782
      dz2     :     0.009425  d :     0.041092
      dxz     :     0.007087
      dyz     :     0.006849
      dx2y2   :     0.009557
      dxy     :     0.008174
      f0      :     0.000408  f :     0.002959
      f+1     :     0.000413
      f-1     :     0.000301
      f+2     :     0.000494
      f-2     :     0.000452
      f+3     :     0.000255
      f-3     :     0.000636

 25 N s       :     3.682166  s :     3.682166
      pz      :     1.259190  p :     3.632283
      px      :     1.090512
      py      :     1.282581
      dz2     :     0.005674  d :     0.052864
      dxz     :     0.013046
      dyz     :     0.006553
      dx2y2   :     0.013523
      dxy     :     0.014068
      f0      :     0.000498  f :     0.003467
      f+1     :     0.000391
      f-1     :     0.000442
      f+2     :     0.000475
      f-2     :     0.000303
      f+3     :     0.000600
      f-3     :     0.000759

 26 C s       :     3.172935  s :     3.172935
      pz      :     0.902380  p :     2.497549
      px      :     0.757670
      py      :     0.837499
      dz2     :     0.008422  d :     0.122084
      dxz     :     0.036304
      dyz     :     0.016751
      dx2y2   :     0.027387
      dxy     :     0.033220
      f0      :     0.001573  f :     0.012643
      f+1     :     0.001268
      f-1     :     0.001051
      f+2     :     0.002024
      f-2     :     0.000870
      f+3     :     0.002371
      f-3     :     0.003486

 27 C s       :     3.256687  s :     3.256687
      pz      :     1.000630  p :     2.809904
      px      :     0.920864
      py      :     0.888410
      dz2     :     0.021006  d :     0.111750
      dxz     :     0.029009
      dyz     :     0.015458
      dx2y2   :     0.028346
      dxy     :     0.017931
      f0      :     0.000856  f :     0.006868
      f+1     :     0.001039
      f-1     :     0.000800
      f+2     :     0.001281
      f-2     :     0.000806
      f+3     :     0.001272
      f-3     :     0.000814

 28 C s       :     3.192259  s :     3.192259
      pz      :     0.938193  p :     2.775525
      px      :     0.903063
      py      :     0.934269
      dz2     :     0.015926  d :     0.109950
      dxz     :     0.031126
      dyz     :     0.024119
      dx2y2   :     0.017682
      dxy     :     0.021096
      f0      :     0.001064  f :     0.006791
      f+1     :     0.001344
      f-1     :     0.001065
      f+2     :     0.000626
      f-2     :     0.000858
      f+3     :     0.001016
      f-3     :     0.000818

 29 C s       :     3.197285  s :     3.197285
      pz      :     0.865038  p :     2.568503
      px      :     0.910111
      py      :     0.793354
      dz2     :     0.012607  d :     0.118599
      dxz     :     0.033169
      dyz     :     0.017892
      dx2y2   :     0.029402
      dxy     :     0.025530
      f0      :     0.001388  f :     0.012597
      f+1     :     0.001207
      f-1     :     0.001611
      f+2     :     0.001588
      f-2     :     0.001400
      f+3     :     0.001566
      f-3     :     0.003835

 30 C s       :     3.354513  s :     3.354513
      pz      :     0.969130  p :     3.073725
      px      :     1.070806
      py      :     1.033789
      dz2     :     0.011796  d :     0.053126
      dxz     :     0.017457
      dyz     :     0.006520
      dx2y2   :     0.011880
      dxy     :     0.005473
      f0      :     0.000542  f :     0.003208
      f+1     :     0.000452
      f-1     :     0.000416
      f+2     :     0.000792
      f-2     :     0.000455
      f+3     :     0.000177
      f-3     :     0.000375

 31 C s       :     3.295886  s :     3.295886
      pz      :     0.873437  p :     2.922451
      px      :     1.093501
      py      :     0.955513
      dz2     :     0.024421  d :     0.089009
      dxz     :     0.013988
      dyz     :     0.020820
      dx2y2   :     0.007496
      dxy     :     0.022284
      f0      :     0.000814  f :     0.004918
      f+1     :     0.000750
      f-1     :     0.001400
      f+2     :     0.000344
      f-2     :     0.000468
      f+3     :     0.000523
      f-3     :     0.000620

 32 C s       :     3.319392  s :     3.319392
      pz      :     1.072605  p :     3.094981
      px      :     1.061943
      py      :     0.960433
      dz2     :     0.020785  d :     0.053997
      dxz     :     0.001505
      dyz     :     0.006212
      dx2y2   :     0.006141
      dxy     :     0.019354
      f0      :     0.000554  f :     0.003234
      f+1     :     0.000121
      f-1     :     0.000738
      f+2     :     0.000321
      f-2     :     0.000392
      f+3     :     0.000495
      f-3     :     0.000613

 33 N s       :     3.748415  s :     3.748415
      pz      :     1.351272  p :     3.673132
      px      :     1.223171
      py      :     1.098689
      dz2     :     0.006531  d :     0.051674
      dxz     :     0.007987
      dyz     :     0.010243
      dx2y2   :     0.013692
      dxy     :     0.013221
      f0      :     0.000554  f :     0.003503
      f+1     :     0.000317
      f-1     :     0.000605
      f+2     :     0.000390
      f-2     :     0.000440
      f+3     :     0.000692
      f-3     :     0.000504

 34 C s       :     3.142758  s :     3.142758
      pz      :     0.910117  p :     2.507612
      px      :     0.827834
      py      :     0.769661
      dz2     :     0.013629  d :     0.119499
      dxz     :     0.027339
      dyz     :     0.023923
      dx2y2   :     0.024835
      dxy     :     0.029773
      f0      :     0.001473  f :     0.012774
      f+1     :     0.000939
      f-1     :     0.001986
      f+2     :     0.001797
      f-2     :     0.001248
      f+3     :     0.002567
      f-3     :     0.002764

 35 C s       :     3.227893  s :     3.227893
      pz      :     0.943575  p :     2.665847
      px      :     0.855477
      py      :     0.866795
      dz2     :     0.012677  d :     0.115155
      dxz     :     0.019169
      dyz     :     0.024899
      dx2y2   :     0.039853
      dxy     :     0.018556
      f0      :     0.001111  f :     0.008664
      f+1     :     0.000720
      f-1     :     0.001295
      f+2     :     0.001284
      f-2     :     0.000794
      f+3     :     0.001128
      f-3     :     0.002331

 36 C s       :     3.115148  s :     3.115148
      pz      :     1.047328  p :     2.800550
      px      :     0.853790
      py      :     0.899432
      dz2     :     0.012969  d :     0.087219
      dxz     :     0.012652
      dyz     :     0.020204
      dx2y2   :     0.018448
      dxy     :     0.022946
      f0      :     0.001283  f :     0.009927
      f+1     :     0.001064
      f-1     :     0.001433
      f+2     :     0.000655
      f-2     :     0.001415
      f+3     :     0.002198
      f-3     :     0.001879

 37 C s       :     3.205013  s :     3.205013
      pz      :     0.885277  p :     2.395657
      px      :     0.667364
      py      :     0.843015
      dz2     :     0.011977  d :     0.133326
      dxz     :     0.040361
      dyz     :     0.022917
      dx2y2   :     0.034737
      dxy     :     0.023334
      f0      :     0.001728  f :     0.014491
      f+1     :     0.001380
      f-1     :     0.001525
      f+2     :     0.001009
      f-2     :     0.002343
      f+3     :     0.004614
      f-3     :     0.001892

 38 C s       :     3.440091  s :     3.440091
      pz      :     1.058544  p :     3.055114
      px      :     1.035479
      py      :     0.961091
      dz2     :     0.008840  d :     0.051481
      dxz     :     0.004785
      dyz     :     0.015639
      dx2y2   :     0.015055
      dxy     :     0.007162
      f0      :     0.000282  f :     0.003067
      f+1     :     0.000377
      f-1     :     0.000543
      f+2     :     0.000374
      f-2     :     0.000357
      f+3     :     0.000527
      f-3     :     0.000606

 39 C s       :     3.167629  s :     3.167629
      pz      :     0.736817  p :     2.452609
      px      :     0.844804
      py      :     0.870988
      dz2     :     0.009926  d :     0.213635
      dxz     :     0.058533
      dyz     :     0.014471
      dx2y2   :     0.057137
      dxy     :     0.073569
      f0      :     0.001766  f :     0.016443
      f+1     :     0.001776
      f-1     :     0.000830
      f+2     :     0.002229
      f-2     :     0.001292
      f+3     :     0.004507
      f-3     :     0.004043

 40 O s       :     3.804522  s :     3.804522
      pz      :     1.408877  p :     4.515208
      px      :     1.388331
      py      :     1.717999
      dz2     :     0.002669  d :     0.030036
      dxz     :     0.010282
      dyz     :     0.000821
      dx2y2   :     0.007878
      dxy     :     0.008387
      f0      :     0.000160  f :     0.001927
      f+1     :     0.000214
      f-1     :     0.000020
      f+2     :     0.000362
      f-2     :     0.000127
      f+3     :     0.000512
      f-3     :     0.000532

 41 C s       :     3.168995  s :     3.168995
      pz      :     0.959814  p :     2.950329
      px      :     0.919124
      py      :     1.071391
      dz2     :     0.013406  d :     0.093624
      dxz     :     0.026672
      dyz     :     0.015828
      dx2y2   :     0.017831
      dxy     :     0.019887
      f0      :     0.000938  f :     0.005788
      f+1     :     0.000921
      f-1     :     0.000705
      f+2     :     0.000923
      f-2     :     0.000514
      f+3     :     0.000807
      f-3     :     0.000981

 42 C s       :     3.046029  s :     3.046029
      pz      :     0.806755  p :     2.270542
      px      :     0.744548
      py      :     0.719239
      dz2     :     0.068224  d :     0.278059
      dxz     :     0.073230
      dyz     :     0.058247
      dx2y2   :     0.042826
      dxy     :     0.035532
      f0      :     0.006624  f :     0.023473
      f+1     :     0.003120
      f-1     :     0.003164
      f+2     :     0.002723
      f-2     :     0.003199
      f+3     :     0.003251
      f-3     :     0.001392

 43 O s       :     3.816751  s :     3.816751
      pz      :     1.413521  p :     4.537969
      px      :     1.648613
      py      :     1.475835
      dz2     :     0.008959  d :     0.030087
      dxz     :     0.008383
      dyz     :     0.009081
      dx2y2   :     0.001940
      dxy     :     0.001724
      f0      :     0.000514  f :     0.002061
      f+1     :     0.000563
      f-1     :     0.000431
      f+2     :     0.000282
      f-2     :     0.000256
      f+3     :     0.000004
      f-3     :     0.000012

 44 O s       :     3.777685  s :     3.777685
      pz      :     1.511513  p :     4.453236
      px      :     1.313379
      py      :     1.628343
      dz2     :     0.009368  d :     0.037414
      dxz     :     0.009562
      dyz     :     0.004797
      dx2y2   :     0.006419
      dxy     :     0.007268
      f0      :     0.000172  f :     0.002130
      f+1     :     0.000366
      f-1     :     0.000133
      f+2     :     0.000258
      f-2     :     0.000302
      f+3     :     0.000401
      f-3     :     0.000498

 45 C s       :     3.291493  s :     3.291493
      pz      :     0.817338  p :     2.898792
      px      :     0.985824
      py      :     1.095630
      dz2     :     0.017875  d :     0.085492
      dxz     :     0.019173
      dyz     :     0.026686
      dx2y2   :     0.010206
      dxy     :     0.011551
      f0      :     0.001366  f :     0.006936
      f+1     :     0.001120
      f-1     :     0.000810
      f+2     :     0.001270
      f-2     :     0.001486
      f+3     :     0.000353
      f-3     :     0.000531

 46 C s       :     3.311063  s :     3.311063
      pz      :     0.774076  p :     2.795494
      px      :     1.110030
      py      :     0.911388
      dz2     :     0.020441  d :     0.114655
      dxz     :     0.024588
      dyz     :     0.032778
      dx2y2   :     0.019547
      dxy     :     0.017301
      f0      :     0.001842  f :     0.008372
      f+1     :     0.000833
      f-1     :     0.001380
      f+2     :     0.001474
      f-2     :     0.001167
      f+3     :     0.000825
      f-3     :     0.000851

 47 C s       :     3.184757  s :     3.184757
      pz      :     1.034138  p :     2.926525
      px      :     0.989628
      py      :     0.902759
      dz2     :     0.006471  d :     0.061483
      dxz     :     0.005335
      dyz     :     0.013837
      dx2y2   :     0.021979
      dxy     :     0.013862
      f0      :     0.000743  f :     0.006557
      f+1     :     0.000705
      f-1     :     0.001270
      f+2     :     0.000638
      f-2     :     0.000658
      f+3     :     0.001026
      f-3     :     0.001517

 48 C s       :     3.188276  s :     3.188276
      pz      :     0.906580  p :     2.635937
      px      :     0.825399
      py      :     0.903959
      dz2     :     0.013224  d :     0.096881
      dxz     :     0.018495
      dyz     :     0.017283
      dx2y2   :     0.028336
      dxy     :     0.019542
      f0      :     0.000912  f :     0.008219
      f+1     :     0.000892
      f-1     :     0.001087
      f+2     :     0.001050
      f-2     :     0.000743
      f+3     :     0.000978
      f-3     :     0.002557

 49 C s       :     3.366572  s :     3.366572
      pz      :     1.089143  p :     3.079259
      px      :     0.900435
      py      :     1.089681
      dz2     :     0.007963  d :     0.048154
      dxz     :     0.013106
      dyz     :     0.004458
      dx2y2   :     0.006295
      dxy     :     0.016331
      f0      :     0.000624  f :     0.002999
      f+1     :     0.000369
      f-1     :     0.000071
      f+2     :     0.000433
      f-2     :     0.000201
      f+3     :     0.000714
      f-3     :     0.000587

 50 C s       :     3.317623  s :     3.317623
      pz      :     0.916569  p :     2.931187
      px      :     1.061273
      py      :     0.953345
      dz2     :     0.012667  d :     0.082605
      dxz     :     0.019478
      dyz     :     0.025338
      dx2y2   :     0.014083
      dxy     :     0.011039
      f0      :     0.000937  f :     0.004832
      f+1     :     0.000808
      f-1     :     0.000983
      f+2     :     0.000430
      f-2     :     0.000438
      f+3     :     0.000730
      f-3     :     0.000505

 51 C s       :     3.286431  s :     3.286431
      pz      :     0.936666  p :     2.953421
      px      :     1.047137
      py      :     0.969617
      dz2     :     0.014303  d :     0.085930
      dxz     :     0.018074
      dyz     :     0.025393
      dx2y2   :     0.018956
      dxy     :     0.009203
      f0      :     0.000966  f :     0.005057
      f+1     :     0.000863
      f-1     :     0.000950
      f+2     :     0.000391
      f-2     :     0.000546
      f+3     :     0.000652
      f-3     :     0.000689

 52 C s       :     3.293991  s :     3.293991
      pz      :     0.939512  p :     2.949382
      px      :     1.051414
      py      :     0.958455
      dz2     :     0.012912  d :     0.085151
      dxz     :     0.019075
      dyz     :     0.024145
      dx2y2   :     0.018673
      dxy     :     0.010347
      f0      :     0.000976  f :     0.005040
      f+1     :     0.000751
      f-1     :     0.000962
      f+2     :     0.000441
      f-2     :     0.000578
      f+3     :     0.000653
      f-3     :     0.000679

 53 C s       :     3.174421  s :     3.174421
      pz      :     0.900253  p :     2.755043
      px      :     0.879851
      py      :     0.974938
      dz2     :     0.024463  d :     0.120766
      dxz     :     0.026431
      dyz     :     0.022577
      dx2y2   :     0.021381
      dxy     :     0.025914
      f0      :     0.001023  f :     0.006739
      f+1     :     0.001492
      f-1     :     0.000857
      f+2     :     0.000442
      f-2     :     0.000935
      f+3     :     0.000853
      f-3     :     0.001137

 54 C s       :     3.344495  s :     3.344495
      pz      :     1.064842  p :     3.105558
      px      :     0.961683
      py      :     1.079033
      dz2     :     0.016422  d :     0.052179
      dxz     :     0.007375
      dyz     :     0.003318
      dx2y2   :     0.004751
      dxy     :     0.020313
      f0      :     0.000553  f :     0.003171
      f+1     :     0.000631
      f-1     :     0.000139
      f+2     :     0.000352
      f-2     :     0.000382
      f+3     :     0.000663
      f-3     :     0.000450

 55 C s       :     3.297121  s :     3.297121
      pz      :     0.926876  p :     2.944157
      px      :     1.025652
      py      :     0.991630
      dz2     :     0.012278  d :     0.085863
      dxz     :     0.024429
      dyz     :     0.020662
      dx2y2   :     0.017397
      dxy     :     0.011098
      f0      :     0.000983  f :     0.005069
      f+1     :     0.000764
      f-1     :     0.000798
      f+2     :     0.000439
      f-2     :     0.000744
      f+3     :     0.000686
      f-3     :     0.000655

 56 C s       :     3.279419  s :     3.279419
      pz      :     0.941379  p :     2.949442
      px      :     1.011674
      py      :     0.996389
      dz2     :     0.012249  d :     0.085556
      dxz     :     0.023943
      dyz     :     0.020844
      dx2y2   :     0.018188
      dxy     :     0.010333
      f0      :     0.001054  f :     0.005066
      f+1     :     0.000785
      f-1     :     0.000721
      f+2     :     0.000340
      f-2     :     0.000792
      f+3     :     0.000703
      f-3     :     0.000671

 57 C s       :     3.297783  s :     3.297783
      pz      :     0.942680  p :     2.943476
      px      :     1.011479
      py      :     0.989317
      dz2     :     0.012336  d :     0.085873
      dxz     :     0.024133
      dyz     :     0.019317
      dx2y2   :     0.019131
      dxy     :     0.010956
      f0      :     0.000979  f :     0.005071
      f+1     :     0.000701
      f-1     :     0.000702
      f+2     :     0.000417
      f-2     :     0.000851
      f+3     :     0.000747
      f-3     :     0.000674

 58 C s       :     3.174463  s :     3.174463
      pz      :     0.880624  p :     2.753774
      px      :     0.887260
      py      :     0.985889
      dz2     :     0.026669  d :     0.120649
      dxz     :     0.027014
      dyz     :     0.020557
      dx2y2   :     0.023584
      dxy     :     0.022824
      f0      :     0.001232  f :     0.006739
      f+1     :     0.001184
      f-1     :     0.000738
      f+2     :     0.000636
      f-2     :     0.001170
      f+3     :     0.001045
      f-3     :     0.000733

 59 C s       :     3.344636  s :     3.344636
      pz      :     1.032770  p :     3.105818
      px      :     1.009092
      py      :     1.063956
      dz2     :     0.018086  d :     0.052318
      dxz     :     0.006857
      dyz     :     0.003800
      dx2y2   :     0.007442
      dxy     :     0.016134
      f0      :     0.000436  f :     0.003175
      f+1     :     0.000812
      f-1     :     0.000211
      f+2     :     0.000424
      f-2     :     0.000432
      f+3     :     0.000493
      f-3     :     0.000367

 60 C s       :     3.294441  s :     3.294441
      pz      :     0.943628  p :     2.943793
      px      :     0.977824
      py      :     1.022341
      dz2     :     0.014504  d :     0.085997
      dxz     :     0.023674
      dyz     :     0.017426
      dx2y2   :     0.018743
      dxy     :     0.011650
      f0      :     0.000895  f :     0.005067
      f+1     :     0.000726
      f-1     :     0.000538
      f+2     :     0.000471
      f-2     :     0.000999
      f+3     :     0.000829
      f-3     :     0.000609

 61 C s       :     3.280575  s :     3.280575
      pz      :     0.951997  p :     2.952050
      px      :     0.977285
      py      :     1.022768
      dz2     :     0.014156  d :     0.085758
      dxz     :     0.023499
      dyz     :     0.017162
      dx2y2   :     0.019139
      dxy     :     0.011802
      f0      :     0.000959  f :     0.005066
      f+1     :     0.000729
      f-1     :     0.000500
      f+2     :     0.000481
      f-2     :     0.000973
      f+3     :     0.000840
      f-3     :     0.000584

 62 C s       :     3.275074  s :     3.275074
      pz      :     0.967373  p :     2.944618
      px      :     0.956440
      py      :     1.020805
      dz2     :     0.014391  d :     0.086783
      dxz     :     0.024203
      dyz     :     0.016276
      dx2y2   :     0.019661
      dxy     :     0.012251
      f0      :     0.000800  f :     0.005049
      f+1     :     0.000756
      f-1     :     0.000506
      f+2     :     0.000482
      f-2     :     0.000993
      f+3     :     0.000896
      f-3     :     0.000617

 63 C s       :     3.169355  s :     3.169355
      pz      :     0.886382  p :     2.775918
      px      :     0.888276
      py      :     1.001260
      dz2     :     0.026580  d :     0.122014
      dxz     :     0.029899
      dyz     :     0.020184
      dx2y2   :     0.025511
      dxy     :     0.019840
      f0      :     0.001338  f :     0.006746
      f+1     :     0.000978
      f-1     :     0.000714
      f+2     :     0.001032
      f-2     :     0.001114
      f+3     :     0.000941
      f-3     :     0.000629

 64 C s       :     3.327971  s :     3.327971
      pz      :     1.001193  p :     3.097702
      px      :     1.052610
      py      :     1.043899
      dz2     :     0.015270  d :     0.053752
      dxz     :     0.013120
      dyz     :     0.004673
      dx2y2   :     0.010508
      dxy     :     0.010180
      f0      :     0.000512  f :     0.003210
      f+1     :     0.000671
      f-1     :     0.000346
      f+2     :     0.000626
      f-2     :     0.000435
      f+3     :     0.000267
      f-3     :     0.000352

 65 C s       :     3.335181  s :     3.335181
      pz      :     1.082066  p :     3.076208
      px      :     0.960619
      py      :     1.033524
      dz2     :     0.005706  d :     0.054766
      dxz     :     0.018971
      dyz     :     0.006782
      dx2y2   :     0.017486
      dxy     :     0.005820
      f0      :     0.000277  f :     0.003242
      f+1     :     0.000657
      f-1     :     0.000223
      f+2     :     0.000359
      f-2     :     0.000510
      f+3     :     0.000725
      f-3     :     0.000492

 66 H s       :     0.795970  s :     0.795970
      pz      :     0.006076  p :     0.021596
      px      :     0.003960
      py      :     0.011560

 67 H s       :     0.769159  s :     0.769159
      pz      :     0.004346  p :     0.022999
      px      :     0.014891
      py      :     0.003762

 68 H s       :     0.777254  s :     0.777254
      pz      :     0.005664  p :     0.020779
      px      :     0.003822
      py      :     0.011294

 69 H s       :     0.776437  s :     0.776437
      pz      :     0.008184  p :     0.020408
      px      :     0.008669
      py      :     0.003555

 70 H s       :     0.791112  s :     0.791112
      pz      :     0.004660  p :     0.019872
      px      :     0.004160
      py      :     0.011052

 71 H s       :     0.821613  s :     0.821613
      pz      :     0.005120  p :     0.019198
      px      :     0.010008
      py      :     0.004070

 72 H s       :     0.814264  s :     0.814264
      pz      :     0.004985  p :     0.018959
      px      :     0.004242
      py      :     0.009731

 73 H s       :     0.815367  s :     0.815367
      pz      :     0.004633  p :     0.018994
      px      :     0.007126
      py      :     0.007234

 74 H s       :     0.791285  s :     0.791285
      pz      :     0.004238  p :     0.019202
      px      :     0.003707
      py      :     0.011257

 75 H s       :     0.784678  s :     0.784678
      pz      :     0.004481  p :     0.019955
      px      :     0.011253
      py      :     0.004220

 76 H s       :     0.780595  s :     0.780595
      pz      :     0.004303  p :     0.020120
      px      :     0.004054
      py      :     0.011762

 77 H s       :     0.796038  s :     0.796038
      pz      :     0.003896  p :     0.020114
      px      :     0.011473
      py      :     0.004745

 78 H s       :     0.795784  s :     0.795784
      pz      :     0.006489  p :     0.019484
      px      :     0.008428
      py      :     0.004567

 79 H s       :     0.786856  s :     0.786856
      pz      :     0.010663  p :     0.019358
      px      :     0.005125
      py      :     0.003570

 80 H s       :     0.814392  s :     0.814392
      pz      :     0.003914  p :     0.020370
      px      :     0.007569
      py      :     0.008887

 81 H s       :     0.813230  s :     0.813230
      pz      :     0.003576  p :     0.019735
      px      :     0.010854
      py      :     0.005306

 82 H s       :     0.799551  s :     0.799551
      pz      :     0.011033  p :     0.019381
      px      :     0.004251
      py      :     0.004097

 83 H s       :     0.796050  s :     0.796050
      pz      :     0.005309  p :     0.019783
      px      :     0.003898
      py      :     0.010577

 84 H s       :     0.794159  s :     0.794159
      pz      :     0.007997  p :     0.019992
      px      :     0.008465
      py      :     0.003530

 85 H s       :     0.804295  s :     0.804295
      pz      :     0.005089  p :     0.020027
      px      :     0.004036
      py      :     0.010902

 86 H s       :     0.817753  s :     0.817753
      pz      :     0.003924  p :     0.018972
      px      :     0.003913
      py      :     0.011135

 87 H s       :     0.818383  s :     0.818383
      pz      :     0.008001  p :     0.018938
      px      :     0.007290
      py      :     0.003647

 88 H s       :     0.820169  s :     0.820169
      pz      :     0.005177  p :     0.019226
      px      :     0.009372
      py      :     0.004678

 89 H s       :     0.820461  s :     0.820461
      pz      :     0.004346  p :     0.019237
      px      :     0.009999
      py      :     0.004892

 90 H s       :     0.818395  s :     0.818395
      pz      :     0.004137  p :     0.019083
      px      :     0.007264
      py      :     0.007682

 91 H s       :     0.820834  s :     0.820834
      pz      :     0.011550  p :     0.019042
      px      :     0.003672
      py      :     0.003820

 92 H s       :     0.823855  s :     0.823855
      pz      :     0.004083  p :     0.019083
      px      :     0.009953
      py      :     0.005046

 93 H s       :     0.826665  s :     0.826665
      pz      :     0.004042  p :     0.019052
      px      :     0.007402
      py      :     0.007608

 94 H s       :     0.814509  s :     0.814509
      pz      :     0.003798  p :     0.019776
      px      :     0.012181
      py      :     0.003797

 95 H s       :     0.799375  s :     0.799375
      pz      :     0.006783  p :     0.019027
      px      :     0.003686
      py      :     0.008557

 96 H s       :     0.806488  s :     0.806488
      pz      :     0.010149  p :     0.018969
      px      :     0.004253
      py      :     0.004567

 97 H s       :     0.768584  s :     0.768584
      pz      :     0.008425  p :     0.020991
      px      :     0.004335
      py      :     0.008232

 98 H s       :     0.815020  s :     0.815020
      pz      :     0.003307  p :     0.019032
      px      :     0.010361
      py      :     0.005364

 99 H s       :     0.817893  s :     0.817893
      pz      :     0.006553  p :     0.018575
      px      :     0.004880
      py      :     0.007143

100 H s       :     0.814756  s :     0.814756
      pz      :     0.005210  p :     0.018651
      px      :     0.003527
      py      :     0.009914

101 H s       :     0.800010  s :     0.800010
      pz      :     0.005208  p :     0.019493
      px      :     0.008072
      py      :     0.006213

102 H s       :     0.785414  s :     0.785414
      pz      :     0.005837  p :     0.019300
      px      :     0.010105
      py      :     0.003358

103 H s       :     0.813673  s :     0.813673
      pz      :     0.004327  p :     0.020393
      px      :     0.013039
      py      :     0.003028

104 H s       :     0.813776  s :     0.813776
      pz      :     0.005379  p :     0.019054
      px      :     0.005285
      py      :     0.008390

105 H s       :     0.820074  s :     0.820074
      pz      :     0.004771  p :     0.019854
      px      :     0.005436
      py      :     0.009648

106 H s       :     0.803597  s :     0.803597
      pz      :     0.011170  p :     0.019463
      px      :     0.004403
      py      :     0.003890

107 H s       :     0.814447  s :     0.814447
      pz      :     0.004582  p :     0.019486
      px      :     0.011437
      py      :     0.003467

108 H s       :     0.807925  s :     0.807925
      pz      :     0.005650  p :     0.018979
      px      :     0.004942
      py      :     0.008387

109 H s       :     0.809284  s :     0.809284
      pz      :     0.004781  p :     0.019733
      px      :     0.011343
      py      :     0.003609

110 H s       :     0.822918  s :     0.822918
      pz      :     0.005578  p :     0.018951
      px      :     0.004833
      py      :     0.008540

111 H s       :     0.823190  s :     0.823190
      pz      :     0.005207  p :     0.019144
      px      :     0.010400
      py      :     0.003538

112 H s       :     0.821593  s :     0.821593
      pz      :     0.005211  p :     0.018768
      px      :     0.005067
      py      :     0.008490

113 H s       :     0.836068  s :     0.836068
      pz      :     0.005057  p :     0.019255
      px      :     0.005035
      py      :     0.009163

114 H s       :     0.822561  s :     0.822561
      pz      :     0.011599  p :     0.019435
      px      :     0.003858
      py      :     0.003979

115 H s       :     0.828594  s :     0.828594
      pz      :     0.004663  p :     0.018713
      px      :     0.005502
      py      :     0.008548

116 H s       :     0.823503  s :     0.823503
      pz      :     0.003952  p :     0.019407
      px      :     0.006981
      py      :     0.008474

117 H s       :     0.825947  s :     0.825947
      pz      :     0.006269  p :     0.019115
      px      :     0.009160
      py      :     0.003686

118 H s       :     0.823030  s :     0.823030
      pz      :     0.004722  p :     0.018740
      px      :     0.004874
      py      :     0.009143

119 H s       :     0.821315  s :     0.821315
      pz      :     0.006643  p :     0.019865
      px      :     0.009347
      py      :     0.003875

120 H s       :     0.828955  s :     0.828955
      pz      :     0.004814  p :     0.018857
      px      :     0.004608
      py      :     0.009435

121 H s       :     0.826430  s :     0.826430
      pz      :     0.006962  p :     0.019109
      px      :     0.008408
      py      :     0.003739

122 H s       :     0.823509  s :     0.823509
      pz      :     0.004553  p :     0.018740
      px      :     0.004712
      py      :     0.009475

123 H s       :     0.837924  s :     0.837924
      pz      :     0.004485  p :     0.019240
      px      :     0.004515
      py      :     0.010240

124 H s       :     0.822542  s :     0.822542
      pz      :     0.010915  p :     0.019417
      px      :     0.004632
      py      :     0.003869

125 H s       :     0.829313  s :     0.829313
      pz      :     0.004166  p :     0.018701
      px      :     0.004861
      py      :     0.009673

126 H s       :     0.823438  s :     0.823438
      pz      :     0.003886  p :     0.019421
      px      :     0.008626
      py      :     0.006909

127 H s       :     0.826646  s :     0.826646
      pz      :     0.007997  p :     0.019109
      px      :     0.006989
      py      :     0.004123

128 H s       :     0.824130  s :     0.824130
      pz      :     0.004344  p :     0.018736
      px      :     0.004311
      py      :     0.010081

129 H s       :     0.819172  s :     0.819172
      pz      :     0.008359  p :     0.019807
      px      :     0.006898
      py      :     0.004549

130 H s       :     0.830018  s :     0.830018
      pz      :     0.004509  p :     0.018835
      px      :     0.004060
      py      :     0.010266

131 H s       :     0.831404  s :     0.831404
      pz      :     0.008587  p :     0.019041
      px      :     0.006151
      py      :     0.004303

132 H s       :     0.825557  s :     0.825557
      pz      :     0.004263  p :     0.018726
      px      :     0.004087
      py      :     0.010375

133 H s       :     0.849178  s :     0.849178
      pz      :     0.004161  p :     0.019308
      px      :     0.004018
      py      :     0.011129

134 H s       :     0.827578  s :     0.827578
      pz      :     0.009131  p :     0.018974
      px      :     0.006082
      py      :     0.003762

135 H s       :     0.832368  s :     0.832368
      pz      :     0.003947  p :     0.018679
      px      :     0.004394
      py      :     0.010338

136 H s       :     0.826404  s :     0.826404
      pz      :     0.004417  p :     0.019282
      px      :     0.009213
      py      :     0.005652

137 H s       :     0.829157  s :     0.829157
      pz      :     0.008466  p :     0.018961
      px      :     0.006741
      py      :     0.003754

138 H s       :     0.831027  s :     0.831027
      pz      :     0.007939  p :     0.018893
      px      :     0.006053
      py      :     0.004901

139 H s       :     0.833573  s :     0.833573
      pz      :     0.004255  p :     0.018676
      px      :     0.003867
      py      :     0.010554



                     *******************************
                     * LOEWDIN POPULATION ANALYSIS *
                     *******************************

----------------------
LOEWDIN ATOMIC CHARGES
----------------------
   0 Mg:    0.333175
   1 C :   -0.071617
   2 C :   -0.108746
   3 C :   -0.107577
   4 C :   -0.109640
   5 N :    0.219374
   6 C :   -0.144498
   7 C :   -0.169126
   8 C :   -0.193221
   9 C :   -0.176201
  10 C :   -0.269663
  11 C :   -0.219068
  12 C :   -0.214818
  13 C :   -0.467375
  14 O :    0.075081
  15 O :    0.240033
  16 N :    0.171982
  17 C :   -0.172955
  18 C :   -0.084229
  19 C :   -0.082838
  20 C :   -0.156832
  21 C :   -0.252794
  22 C :   -0.306082
  23 O :    0.070634
  24 C :   -0.255126
  25 N :    0.214899
  26 C :   -0.170540
  27 C :   -0.197119
  28 C :   -0.176688
  29 C :   -0.171126
  30 C :   -0.272010
  31 C :   -0.259650
  32 C :   -0.309495
  33 N :    0.180171
  34 C :   -0.165278
  35 C :   -0.095512
  36 C :   -0.088273
  37 C :   -0.152794
  38 C :   -0.257352
  39 C :   -0.242847
  40 O :    0.087330
  41 C :   -0.108858
  42 C :   -0.457418
  43 O :    0.085786
  44 O :    0.240620
  45 C :   -0.296466
  46 C :   -0.261860
  47 C :   -0.180776
  48 C :   -0.190854
  49 C :   -0.259363
  50 C :   -0.225175
  51 C :   -0.260278
  52 C :   -0.250795
  53 C :   -0.291238
  54 C :   -0.293496
  55 C :   -0.251809
  56 C :   -0.270920
  57 C :   -0.252068
  58 C :   -0.291930
  59 C :   -0.293969
  60 C :   -0.252342
  61 C :   -0.271197
  62 C :   -0.255049
  63 C :   -0.319385
  64 C :   -0.297758
  65 C :   -0.298424
  66 H :    0.168221
  67 H :    0.169749
  68 H :    0.168852
  69 H :    0.172930
  70 H :    0.168363
  71 H :    0.126739
  72 H :    0.131565
  73 H :    0.129032
  74 H :    0.152309
  75 H :    0.147770
  76 H :    0.169973
  77 H :    0.156778
  78 H :    0.138987
  79 H :    0.141314
  80 H :    0.134787
  81 H :    0.134338
  82 H :    0.139143
  83 H :    0.144118
  84 H :    0.167581
  85 H :    0.169124
  86 H :    0.127972
  87 H :    0.130237
  88 H :    0.126596
  89 H :    0.141896
  90 H :    0.143181
  91 H :    0.124105
  92 H :    0.123581
  93 H :    0.125525
  94 H :    0.136722
  95 H :    0.140279
  96 H :    0.138616
  97 H :    0.184734
  98 H :    0.120552
  99 H :    0.116876
 100 H :    0.118054
 101 H :    0.138773
 102 H :    0.140507
 103 H :    0.149254
 104 H :    0.136003
 105 H :    0.129441
 106 H :    0.137263
 107 H :    0.147687
 108 H :    0.148158
 109 H :    0.138252
 110 H :    0.141336
 111 H :    0.142491
 112 H :    0.141912
 113 H :    0.154019
 114 H :    0.121715
 115 H :    0.125513
 116 H :    0.121589
 117 H :    0.141335
 118 H :    0.141173
 119 H :    0.135970
 120 H :    0.140144
 121 H :    0.141106
 122 H :    0.141022
 123 H :    0.153503
 124 H :    0.121551
 125 H :    0.125310
 126 H :    0.121407
 127 H :    0.141103
 128 H :    0.141055
 129 H :    0.136382
 130 H :    0.140133
 131 H :    0.141230
 132 H :    0.140750
 133 H :    0.151131
 134 H :    0.123031
 135 H :    0.124066
 136 H :    0.120665
 137 H :    0.121979
 138 H :    0.121823
 139 H :    0.123054

-------------------------------
LOEWDIN REDUCED ORBITAL CHARGES
-------------------------------
  0 Mgs       :     4.243173  s :     4.243173
      pz      :     2.142020  p :     6.704794
      px      :     2.297724
      py      :     2.265049
      dz2     :     0.082117  d :     0.718858
      dxz     :     0.116915
      dyz     :     0.083740
      dx2y2   :     0.181307
      dxy     :     0.254778

  1 C s       :     2.681515  s :     2.681515
      pz      :     0.900587  p :     2.838697
      px      :     0.951387
      py      :     0.986724
      dz2     :     0.049511  d :     0.494912
      dxz     :     0.070944
      dyz     :     0.079080
      dx2y2   :     0.159117
      dxy     :     0.136259
      f0      :     0.004530  f :     0.056493
      f+1     :     0.004676
      f-1     :     0.004654
      f+2     :     0.008592
      f-2     :     0.006136
      f+3     :     0.012381
      f-3     :     0.015525

  2 C s       :     2.742859  s :     2.742859
      pz      :     0.944442  p :     2.960323
      px      :     1.026765
      py      :     0.989116
      dz2     :     0.025635  d :     0.365784
      dxz     :     0.080459
      dyz     :     0.030402
      dx2y2   :     0.117123
      dxy     :     0.112165
      f0      :     0.003834  f :     0.039778
      f+1     :     0.005239
      f-1     :     0.001909
      f+2     :     0.004794
      f-2     :     0.004693
      f+3     :     0.008947
      f-3     :     0.010362

  3 C s       :     2.744393  s :     2.744393
      pz      :     0.940797  p :     2.962505
      px      :     1.012195
      py      :     1.009514
      dz2     :     0.037318  d :     0.361096
      dxz     :     0.027380
      dyz     :     0.067597
      dx2y2   :     0.122689
      dxy     :     0.106114
      f0      :     0.003191  f :     0.039582
      f+1     :     0.003345
      f-1     :     0.004597
      f+2     :     0.004651
      f-2     :     0.005441
      f+3     :     0.009973
      f-3     :     0.008384

  4 C s       :     2.745794  s :     2.745794
      pz      :     0.938746  p :     2.955733
      px      :     1.026823
      py      :     0.990164
      dz2     :     0.025307  d :     0.368059
      dxz     :     0.081048
      dyz     :     0.031121
      dx2y2   :     0.116615
      dxy     :     0.113969
      f0      :     0.003752  f :     0.040055
      f+1     :     0.005137
      f-1     :     0.002128
      f+2     :     0.004673
      f-2     :     0.004910
      f+3     :     0.008902
      f-3     :     0.010553

  5 N s       :     2.974792  s :     2.974792
      pz      :     1.130733  p :     3.578161
      px      :     1.159484
      py      :     1.287943
      dz2     :     0.020463  d :     0.209296
      dxz     :     0.044874
      dyz     :     0.019820
      dx2y2   :     0.061899
      dxy     :     0.062239
      f0      :     0.001283  f :     0.018378
      f+1     :     0.001522
      f-1     :     0.001291
      f+2     :     0.002890
      f-2     :     0.001861
      f+3     :     0.003545
      f-3     :     0.005986

  6 C s       :     2.698609  s :     2.698609
      pz      :     0.848012  p :     2.753722
      px      :     0.931285
      py      :     0.974425
      dz2     :     0.056893  d :     0.615809
      dxz     :     0.118518
      dyz     :     0.075661
      dx2y2   :     0.181958
      dxy     :     0.182780
      f0      :     0.005692  f :     0.076358
      f+1     :     0.006734
      f-1     :     0.005085
      f+2     :     0.012200
      f-2     :     0.006980
      f+3     :     0.017312
      f-3     :     0.022356

  7 C s       :     2.712457  s :     2.712457
      pz      :     0.986224  p :     2.923058
      px      :     0.973928
      py      :     0.962905
      dz2     :     0.073642  d :     0.480288
      dxz     :     0.122602
      dyz     :     0.087710
      dx2y2   :     0.118629
      dxy     :     0.077705
      f0      :     0.006714  f :     0.053323
      f+1     :     0.007065
      f-1     :     0.007383
      f+2     :     0.008110
      f-2     :     0.005598
      f+3     :     0.010619
      f-3     :     0.007834

  8 C s       :     2.718027  s :     2.718027
      pz      :     1.002293  p :     2.936279
      px      :     0.958851
      py      :     0.975135
      dz2     :     0.109545  d :     0.484897
      dxz     :     0.107820
      dyz     :     0.088398
      dx2y2   :     0.087998
      dxy     :     0.091136
      f0      :     0.006481  f :     0.054018
      f+1     :     0.010917
      f-1     :     0.008159
      f+2     :     0.006331
      f-2     :     0.007939
      f+3     :     0.007766
      f-3     :     0.006426

  9 C s       :     2.708683  s :     2.708683
      pz      :     0.833564  p :     2.763011
      px      :     1.011276
      py      :     0.918171
      dz2     :     0.068146  d :     0.627280
      dxz     :     0.121305
      dyz     :     0.082192
      dx2y2   :     0.173130
      dxy     :     0.182507
      f0      :     0.005554  f :     0.077227
      f+1     :     0.007060
      f-1     :     0.007070
      f+2     :     0.010933
      f-2     :     0.009285
      f+3     :     0.011743
      f-3     :     0.025582

 10 C s       :     2.827621  s :     2.827621
      pz      :     1.012769  p :     3.160555
      px      :     1.074158
      py      :     1.073628
      dz2     :     0.057167  d :     0.257069
      dxz     :     0.070092
      dyz     :     0.069359
      dx2y2   :     0.027198
      dxy     :     0.033253
      f0      :     0.004929  f :     0.024417
      f+1     :     0.005560
      f-1     :     0.005913
      f+2     :     0.002746
      f-2     :     0.002344
      f+3     :     0.001645
      f-3     :     0.001280

 11 C s       :     2.767796  s :     2.767796
      pz      :     0.990868  p :     3.027477
      px      :     1.020429
      py      :     1.016180
      dz2     :     0.093137  d :     0.386087
      dxz     :     0.087411
      dyz     :     0.079175
      dx2y2   :     0.084563
      dxy     :     0.041801
      f0      :     0.008240  f :     0.037708
      f+1     :     0.005436
      f-1     :     0.005060
      f+2     :     0.005679
      f-2     :     0.006879
      f+3     :     0.002299
      f-3     :     0.004114

 12 C s       :     2.769651  s :     2.769651
      pz      :     0.995699  p :     3.052306
      px      :     1.032343
      py      :     1.024263
      dz2     :     0.088064  d :     0.355962
      dxz     :     0.076339
      dyz     :     0.078473
      dx2y2   :     0.068152
      dxy     :     0.044933
      f0      :     0.006762  f :     0.036900
      f+1     :     0.005717
      f-1     :     0.005494
      f+2     :     0.005365
      f-2     :     0.007057
      f+3     :     0.002145
      f-3     :     0.004360

 13 C s       :     2.754260  s :     2.754260
      pz      :     0.877979  p :     2.610102
      px      :     0.965000
      py      :     0.767123
      dz2     :     0.150859  d :     0.948981
      dxz     :     0.302751
      dyz     :     0.069806
      dx2y2   :     0.190891
      dxy     :     0.234674
      f0      :     0.019616  f :     0.154032
      f+1     :     0.031999
      f-1     :     0.007596
      f+2     :     0.027136
      f-2     :     0.019661
      f+3     :     0.024000
      f-3     :     0.024024

 14 O s       :     3.390824  s :     3.390824
      pz      :     1.539901  p :     4.461475
      px      :     1.510667
      py      :     1.410907
      dz2     :     0.008681  d :     0.066451
      dxz     :     0.018931
      dyz     :     0.001001
      dx2y2   :     0.022737
      dxy     :     0.015100
      f0      :     0.000688  f :     0.006169
      f+1     :     0.001192
      f-1     :     0.000088
      f+2     :     0.001088
      f-2     :     0.000202
      f+3     :     0.001644
      f-3     :     0.001268

 15 O s       :     3.263051  s :     3.263051
      pz      :     1.353853  p :     4.388447
      px      :     1.548618
      py      :     1.485976
      dz2     :     0.022590  d :     0.102196
      dxz     :     0.030454
      dyz     :     0.020713
      dx2y2   :     0.013753
      dxy     :     0.014686
      f0      :     0.000868  f :     0.006273
      f+1     :     0.001248
      f-1     :     0.000800
      f+2     :     0.001115
      f-2     :     0.001036
      f+3     :     0.000612
      f-3     :     0.000593

 16 N s       :     2.969396  s :     2.969396
      pz      :     1.198791  p :     3.639764
      px      :     1.285458
      py      :     1.155515
      dz2     :     0.021961  d :     0.200563
      dxz     :     0.022939
      dyz     :     0.036370
      dx2y2   :     0.061264
      dxy     :     0.058028
      f0      :     0.001353  f :     0.018296
      f+1     :     0.001221
      f-1     :     0.001726
      f+2     :     0.002365
      f-2     :     0.002159
      f+3     :     0.005939
      f-3     :     0.003533

 17 C s       :     2.691613  s :     2.691613
      pz      :     0.853891  p :     2.770073
      px      :     0.991983
      py      :     0.924199
      dz2     :     0.069477  d :     0.632786
      dxz     :     0.092111
      dyz     :     0.109329
      dx2y2   :     0.180005
      dxy     :     0.181864
      f0      :     0.005321  f :     0.078483
      f+1     :     0.004861
      f-1     :     0.008256
      f+2     :     0.012553
      f-2     :     0.008890
      f+3     :     0.020648
      f-3     :     0.017953

 18 C s       :     2.707427  s :     2.707427
      pz      :     0.833036  p :     2.805468
      px      :     0.984026
      py      :     0.988406
      dz2     :     0.049689  d :     0.513209
      dxz     :     0.079910
      dyz     :     0.082062
      dx2y2   :     0.159632
      dxy     :     0.141915
      f0      :     0.003951  f :     0.058124
      f+1     :     0.004725
      f-1     :     0.005470
      f+2     :     0.008938
      f-2     :     0.006516
      f+3     :     0.009047
      f-3     :     0.019479

 19 C s       :     2.699932  s :     2.699932
      pz      :     0.914486  p :     2.864132
      px      :     0.968961
      py      :     0.980685
      dz2     :     0.051230  d :     0.464138
      dxz     :     0.061897
      dyz     :     0.064450
      dx2y2   :     0.143945
      dxy     :     0.142615
      f0      :     0.003965  f :     0.054635
      f+1     :     0.005934
      f-1     :     0.003496
      f+2     :     0.005784
      f-2     :     0.007659
      f+3     :     0.011445
      f-3     :     0.016353

 20 C s       :     2.692431  s :     2.692431
      pz      :     0.844360  p :     2.749428
      px      :     0.923941
      py      :     0.981126
      dz2     :     0.060199  d :     0.636373
      dxz     :     0.117184
      dyz     :     0.092060
      dx2y2   :     0.181702
      dxy     :     0.185228
      f0      :     0.005297  f :     0.078600
      f+1     :     0.007150
      f-1     :     0.005486
      f+2     :     0.008058
      f-2     :     0.012870
      f+3     :     0.026788
      f-3     :     0.012950

 21 C s       :     2.810568  s :     2.810568
      pz      :     1.071424  p :     3.170182
      px      :     1.063053
      py      :     1.035705
      dz2     :     0.047640  d :     0.247293
      dxz     :     0.044984
      dyz     :     0.037580
      dx2y2   :     0.041973
      dxy     :     0.075115
      f0      :     0.002356  f :     0.024750
      f+1     :     0.002453
      f-1     :     0.004061
      f+2     :     0.004218
      f-2     :     0.002765
      f+3     :     0.003697
      f-3     :     0.005203

 22 C s       :     2.758052  s :     2.758052
      pz      :     0.794344  p :     2.665018
      px      :     1.000702
      py      :     0.869972
      dz2     :     0.112382  d :     0.772971
      dxz     :     0.143989
      dyz     :     0.126385
      dx2y2   :     0.185715
      dxy     :     0.204500
      f0      :     0.008815  f :     0.110041
      f+1     :     0.008213
      f-1     :     0.015703
      f+2     :     0.021583
      f-2     :     0.014344
      f+3     :     0.017355
      f-3     :     0.024028

 23 O s       :     3.398170  s :     3.398170
      pz      :     1.384715  p :     4.457515
      px      :     1.640024
      py      :     1.432776
      dz2     :     0.008715  d :     0.067821
      dxz     :     0.008484
      dyz     :     0.018756
      dx2y2   :     0.014690
      dxy     :     0.017177
      f0      :     0.000464  f :     0.005860
      f+1     :     0.000226
      f-1     :     0.000846
      f+2     :     0.001199
      f-2     :     0.001236
      f+3     :     0.000890
      f-3     :     0.001001

 24 C s       :     2.831508  s :     2.831508
      pz      :     1.063854  p :     3.183299
      px      :     1.050638
      py      :     1.068806
      dz2     :     0.050217  d :     0.217120
      dxz     :     0.032420
      dyz     :     0.039992
      dx2y2   :     0.049546
      dxy     :     0.044945
      f0      :     0.002569  f :     0.023199
      f+1     :     0.003617
      f-1     :     0.002074
      f+2     :     0.004430
      f-2     :     0.003537
      f+3     :     0.002178
      f-3     :     0.004794

 25 N s       :     2.973021  s :     2.973021
      pz      :     1.126245  p :     3.583110
      px      :     1.173410
      py      :     1.283455
      dz2     :     0.020284  d :     0.210635
      dxz     :     0.042663
      dyz     :     0.020100
      dx2y2   :     0.063617
      dxy     :     0.063971
      f0      :     0.001221  f :     0.018335
      f+1     :     0.001566
      f-1     :     0.001269
      f+2     :     0.002822
      f-2     :     0.001715
      f+3     :     0.003547
      f-3     :     0.006194

 26 C s       :     2.709040  s :     2.709040
      pz      :     0.821256  p :     2.756218
      px      :     0.957142
      py      :     0.977820
      dz2     :     0.053503  d :     0.627998
      dxz     :     0.124480
      dyz     :     0.073178
      dx2y2   :     0.188451
      dxy     :     0.188386
      f0      :     0.005514  f :     0.077284
      f+1     :     0.006952
      f-1     :     0.004614
      f+2     :     0.012280
      f-2     :     0.006746
      f+3     :     0.017543
      f-3     :     0.023634

 27 C s       :     2.717763  s :     2.717763
      pz      :     0.998198  p :     2.939994
      px      :     0.974127
      py      :     0.967669
      dz2     :     0.077460  d :     0.485226
      dxz     :     0.124821
      dyz     :     0.087161
      dx2y2   :     0.115667
      dxy     :     0.080119
      f0      :     0.007206  f :     0.054135
      f+1     :     0.007001
      f-1     :     0.007572
      f+2     :     0.008102
      f-2     :     0.005624
      f+3     :     0.010892
      f-3     :     0.007739

 28 C s       :     2.717757  s :     2.717757
      pz      :     0.991350  p :     2.925088
      px      :     0.959842
      py      :     0.973896
      dz2     :     0.104075  d :     0.480802
      dxz     :     0.105898
      dyz     :     0.091006
      dx2y2   :     0.087674
      dxy     :     0.092149
      f0      :     0.006552  f :     0.053041
      f+1     :     0.010321
      f-1     :     0.007098
      f+2     :     0.006601
      f-2     :     0.007909
      f+3     :     0.008017
      f-3     :     0.006544

 29 C s       :     2.707900  s :     2.707900
      pz      :     0.840386  p :     2.769004
      px      :     1.012043
      py      :     0.916575
      dz2     :     0.063546  d :     0.618169
      dxz     :     0.118485
      dyz     :     0.081649
      dx2y2   :     0.172889
      dxy     :     0.181600
      f0      :     0.005395  f :     0.076052
      f+1     :     0.006695
      f-1     :     0.007086
      f+2     :     0.010279
      f-2     :     0.009118
      f+3     :     0.012141
      f-3     :     0.025339

 30 C s       :     2.827909  s :     2.827909
      pz      :     1.043864  p :     3.161698
      px      :     1.065441
      py      :     1.052392
      dz2     :     0.054238  d :     0.257951
      dxz     :     0.079917
      dyz     :     0.040014
      dx2y2   :     0.056184
      dxy     :     0.027598
      f0      :     0.005355  f :     0.024453
      f+1     :     0.002881
      f-1     :     0.003806
      f+2     :     0.004219
      f-2     :     0.003431
      f+3     :     0.001743
      f-3     :     0.003018

 31 C s       :     2.777890  s :     2.777890
      pz      :     0.987367  p :     3.049656
      px      :     1.033430
      py      :     1.028858
      dz2     :     0.105512  d :     0.394489
      dxz     :     0.062486
      dyz     :     0.094685
      dx2y2   :     0.042432
      dxy     :     0.089373
      f0      :     0.005173  f :     0.037615
      f+1     :     0.006323
      f-1     :     0.009689
      f+2     :     0.004393
      f-2     :     0.004751
      f+3     :     0.003265
      f-3     :     0.004021

 32 C s       :     2.826684  s :     2.826684
      pz      :     1.060147  p :     3.197120
      px      :     1.074979
      py      :     1.061993
      dz2     :     0.084249  d :     0.260736
      dxz     :     0.011270
      dyz     :     0.040090
      dx2y2   :     0.039720
      dxy     :     0.085407
      f0      :     0.002980  f :     0.024955
      f+1     :     0.001560
      f-1     :     0.004683
      f+2     :     0.004109
      f-2     :     0.004358
      f+3     :     0.003220
      f-3     :     0.004046

 33 N s       :     2.966172  s :     2.966172
      pz      :     1.188686  p :     3.633055
      px      :     1.305975
      py      :     1.138394
      dz2     :     0.021988  d :     0.201642
      dxz     :     0.021136
      dyz     :     0.037944
      dx2y2   :     0.062448
      dxy     :     0.058126
      f0      :     0.001343  f :     0.018960
      f+1     :     0.001298
      f-1     :     0.001665
      f+2     :     0.002106
      f-2     :     0.002524
      f+3     :     0.006113
      f-3     :     0.003912

 34 C s       :     2.694955  s :     2.694955
      pz      :     0.868383  p :     2.774310
      px      :     0.987699
      py      :     0.918229
      dz2     :     0.063665  d :     0.619393
      dxz     :     0.094489
      dyz     :     0.102813
      dx2y2   :     0.176390
      dxy     :     0.182035
      f0      :     0.005117  f :     0.076620
      f+1     :     0.004984
      f-1     :     0.007828
      f+2     :     0.011938
      f-2     :     0.008707
      f+3     :     0.017898
      f-3     :     0.020148

 35 C s       :     2.707780  s :     2.707780
      pz      :     0.851196  p :     2.818224
      px      :     0.981091
      py      :     0.985937
      dz2     :     0.047142  d :     0.511412
      dxz     :     0.076853
      dyz     :     0.083577
      dx2y2   :     0.165753
      dxy     :     0.138086
      f0      :     0.003902  f :     0.058096
      f+1     :     0.004362
      f-1     :     0.005727
      f+2     :     0.009788
      f-2     :     0.005580
      f+3     :     0.009120
      f-3     :     0.019617

 36 C s       :     2.681319  s :     2.681319
      pz      :     0.914046  p :     2.856132
      px      :     0.962386
      py      :     0.979701
      dz2     :     0.053728  d :     0.488327
      dxz     :     0.055704
      dyz     :     0.076748
      dx2y2   :     0.131342
      dxy     :     0.170806
      f0      :     0.004183  f :     0.062494
      f+1     :     0.005468
      f-1     :     0.004310
      f+2     :     0.005022
      f-2     :     0.010146
      f+3     :     0.018454
      f-3     :     0.014910

 37 C s       :     2.661745  s :     2.661745
      pz      :     0.829886  p :     2.726740
      px      :     0.939443
      py      :     0.957411
      dz2     :     0.062987  d :     0.677507
      dxz     :     0.133576
      dyz     :     0.093112
      dx2y2   :     0.195538
      dxy     :     0.192295
      f0      :     0.005590  f :     0.086803
      f+1     :     0.007720
      f-1     :     0.005630
      f+2     :     0.007303
      f-2     :     0.015019
      f+3     :     0.030620
      f-3     :     0.014921

 38 C s       :     2.812826  s :     2.812826
      pz      :     1.069505  p :     3.171963
      px      :     1.060982
      py      :     1.041476
      dz2     :     0.042969  d :     0.247590
      dxz     :     0.019373
      dyz     :     0.070721
      dx2y2   :     0.075057
      dxy     :     0.039469
      f0      :     0.002171  f :     0.024974
      f+1     :     0.003591
      f-1     :     0.003267
      f+2     :     0.002942
      f-2     :     0.003865
      f+3     :     0.003926
      f-3     :     0.005212

 39 C s       :     2.745197  s :     2.745197
      pz      :     0.719051  p :     2.622949
      px      :     0.983804
      py      :     0.920095
      dz2     :     0.054863  d :     0.770136
      dxz     :     0.166324
      dyz     :     0.055370
      dx2y2   :     0.232155
      dxy     :     0.261423
      f0      :     0.007269  f :     0.104565
      f+1     :     0.011184
      f-1     :     0.003920
      f+2     :     0.012979
      f-2     :     0.010414
      f+3     :     0.031320
      f-3     :     0.027479

 40 O s       :     3.395288  s :     3.395288
      pz      :     1.322504  p :     4.443188
      px      :     1.520105
      py      :     1.600579
      dz2     :     0.007472  d :     0.068183
      dxz     :     0.014122
      dyz     :     0.001406
      dx2y2   :     0.022742
      dxy     :     0.022442
      f0      :     0.000453  f :     0.006012
      f+1     :     0.000875
      f-1     :     0.000151
      f+2     :     0.000673
      f-2     :     0.000294
      f+3     :     0.001754
      f-3     :     0.001812

 41 C s       :     2.723644  s :     2.723644
      pz      :     0.985403  p :     2.916837
      px      :     0.958478
      py      :     0.972957
      dz2     :     0.069018  d :     0.422640
      dxz     :     0.103642
      dyz     :     0.080161
      dx2y2   :     0.089370
      dxy     :     0.080449
      f0      :     0.007011  f :     0.045737
      f+1     :     0.006758
      f-1     :     0.004928
      f+2     :     0.006436
      f-2     :     0.005274
      f+3     :     0.006384
      f-3     :     0.008946

 42 C s       :     2.747881  s :     2.747881
      pz      :     1.017689  p :     2.608057
      px      :     0.847313
      py      :     0.743055
      dz2     :     0.248294  d :     0.947786
      dxz     :     0.264287
      dyz     :     0.169709
      dx2y2   :     0.135165
      dxy     :     0.130331
      f0      :     0.043449  f :     0.153694
      f+1     :     0.024018
      f-1     :     0.019617
      f+2     :     0.018104
      f-2     :     0.021853
      f+3     :     0.014997
      f-3     :     0.011658

 43 O s       :     3.390629  s :     3.390629
      pz      :     1.520452  p :     4.450613
      px      :     1.546820
      py      :     1.383341
      dz2     :     0.026097  d :     0.066786
      dxz     :     0.020192
      dyz     :     0.013839
      dx2y2   :     0.003203
      dxy     :     0.003455
      f0      :     0.001877  f :     0.006186
      f+1     :     0.001819
      f-1     :     0.000993
      f+2     :     0.000656
      f-2     :     0.000732
      f+3     :     0.000042
      f-3     :     0.000067

 44 O s       :     3.253255  s :     3.253255
      pz      :     1.503665  p :     4.391337
      px      :     1.359808
      py      :     1.527863
      dz2     :     0.023635  d :     0.108095
      dxz     :     0.029753
      dyz     :     0.013699
      dx2y2   :     0.018897
      dxy     :     0.022112
      f0      :     0.001265  f :     0.006693
      f+1     :     0.001223
      f-1     :     0.000595
      f+2     :     0.000810
      f-2     :     0.001063
      f+3     :     0.000673
      f-3     :     0.001065

 45 C s       :     2.863585  s :     2.863585
      pz      :     0.912896  p :     3.024681
      px      :     1.005344
      py      :     1.106442
      dz2     :     0.079485  d :     0.355697
      dxz     :     0.087556
      dyz     :     0.100146
      dx2y2   :     0.040162
      dxy     :     0.048347
      f0      :     0.012242  f :     0.052502
      f+1     :     0.012068
      f-1     :     0.005173
      f+2     :     0.008198
      f-2     :     0.008415
      f+3     :     0.003224
      f-3     :     0.003182

 46 C s       :     2.798429  s :     2.798429
      pz      :     0.860789  p :     2.917640
      px      :     1.063264
      py      :     0.993587
      dz2     :     0.076208  d :     0.481724
      dxz     :     0.114993
      dyz     :     0.123228
      dx2y2   :     0.080542
      dxy     :     0.086753
      f0      :     0.012999  f :     0.064067
      f+1     :     0.006661
      f-1     :     0.012979
      f+2     :     0.009332
      f-2     :     0.009064
      f+3     :     0.005408
      f-3     :     0.007624

 47 C s       :     2.778115  s :     2.778115
      pz      :     0.948214  p :     2.991933
      px      :     1.013287
      py      :     1.030432
      dz2     :     0.028363  d :     0.370791
      dxz     :     0.020974
      dyz     :     0.065088
      dx2y2   :     0.161671
      dxy     :     0.094695
      f0      :     0.003041  f :     0.039937
      f+1     :     0.003148
      f-1     :     0.004298
      f+2     :     0.003812
      f-2     :     0.005766
      f+3     :     0.007823
      f-3     :     0.012050

 48 C s       :     2.735103  s :     2.735103
      pz      :     0.824821  p :     2.866343
      px      :     1.022334
      py      :     1.019187
      dz2     :     0.052207  d :     0.533336
      dxz     :     0.080873
      dyz     :     0.077979
      dx2y2   :     0.168485
      dxy     :     0.153792
      f0      :     0.004211  f :     0.056071
      f+1     :     0.004568
      f-1     :     0.004507
      f+2     :     0.007598
      f-2     :     0.006753
      f+3     :     0.008119
      f-3     :     0.020315

 49 C s       :     2.814252  s :     2.814252
      pz      :     1.074003  p :     3.171982
      px      :     1.029633
      py      :     1.068346
      dz2     :     0.045269  d :     0.248430
      dxz     :     0.056697
      dyz     :     0.020625
      dx2y2   :     0.048075
      dxy     :     0.077765
      f0      :     0.003980  f :     0.024699
      f+1     :     0.003083
      f-1     :     0.000449
      f+2     :     0.004212
      f-2     :     0.003254
      f+3     :     0.004568
      f-3     :     0.005152

 50 C s       :     2.767302  s :     2.767302
      pz      :     1.013644  p :     3.034662
      px      :     1.021528
      py      :     0.999491
      dz2     :     0.078494  d :     0.385179
      dxz     :     0.072675
      dyz     :     0.100327
      dx2y2   :     0.077225
      dxy     :     0.056457
      f0      :     0.006468  f :     0.038032
      f+1     :     0.006181
      f-1     :     0.006778
      f+2     :     0.004565
      f-2     :     0.004899
      f+3     :     0.004791
      f-3     :     0.004351

 51 C s       :     2.775268  s :     2.775268
      pz      :     1.002144  p :     3.052882
      px      :     1.030429
      py      :     1.020309
      dz2     :     0.080993  d :     0.393720
      dxz     :     0.074222
      dyz     :     0.100944
      dx2y2   :     0.083442
      dxy     :     0.054120
      f0      :     0.006610  f :     0.038409
      f+1     :     0.006600
      f-1     :     0.006694
      f+2     :     0.004246
      f-2     :     0.005251
      f+3     :     0.004331
      f-3     :     0.004677

 52 C s       :     2.773961  s :     2.773961
      pz      :     1.002212  p :     3.042271
      px      :     1.024163
      py      :     1.015897
      dz2     :     0.076548  d :     0.396520
      dxz     :     0.083779
      dyz     :     0.098361
      dx2y2   :     0.077792
      dxy     :     0.060039
      f0      :     0.006541  f :     0.038043
      f+1     :     0.005623
      f-1     :     0.007011
      f+2     :     0.004938
      f-2     :     0.004978
      f+3     :     0.004284
      f-3     :     0.004669

 53 C s       :     2.733810  s :     2.733810
      pz      :     0.992584  p :     2.985690
      px      :     1.000344
      py      :     0.992762
      dz2     :     0.112990  d :     0.519195
      dxz     :     0.109496
      dyz     :     0.094140
      dx2y2   :     0.091371
      dxy     :     0.111198
      f0      :     0.007659  f :     0.052543
      f+1     :     0.010947
      f-1     :     0.006390
      f+2     :     0.005560
      f-2     :     0.007782
      f+3     :     0.006473
      f-3     :     0.007732

 54 C s       :     2.825689  s :     2.825689
      pz      :     1.063566  p :     3.180721
      px      :     1.045129
      py      :     1.072025
      dz2     :     0.079935  d :     0.262384
      dxz     :     0.041796
      dyz     :     0.017332
      dx2y2   :     0.032860
      dxy     :     0.090461
      f0      :     0.003091  f :     0.024702
      f+1     :     0.004488
      f-1     :     0.001305
      f+2     :     0.004101
      f-2     :     0.004101
      f+3     :     0.004625
      f-3     :     0.002992

 55 C s       :     2.774041  s :     2.774041
      pz      :     1.015802  p :     3.042534
      px      :     1.012697
      py      :     1.014035
      dz2     :     0.074026  d :     0.397192
      dxz     :     0.102598
      dyz     :     0.084511
      dx2y2   :     0.071716
      dxy     :     0.064341
      f0      :     0.007143  f :     0.038042
      f+1     :     0.004766
      f-1     :     0.006484
      f+2     :     0.005370
      f-2     :     0.005157
      f+3     :     0.004632
      f-3     :     0.004491

 56 C s       :     2.773414  s :     2.773414
      pz      :     1.019138  p :     3.062008
      px      :     1.021921
      py      :     1.020950
      dz2     :     0.072205  d :     0.396666
      dxz     :     0.103862
      dyz     :     0.081717
      dx2y2   :     0.075073
      dxy     :     0.063810
      f0      :     0.007772  f :     0.038832
      f+1     :     0.005013
      f-1     :     0.006135
      f+2     :     0.004859
      f-2     :     0.005480
      f+3     :     0.004939
      f-3     :     0.004633

 57 C s       :     2.774121  s :     2.774121
      pz      :     1.004046  p :     3.042683
      px      :     1.018101
      py      :     1.020535
      dz2     :     0.070290  d :     0.397226
      dxz     :     0.107297
      dyz     :     0.075940
      dx2y2   :     0.073869
      dxy     :     0.069829
      f0      :     0.007071  f :     0.038039
      f+1     :     0.004474
      f-1     :     0.005952
      f+2     :     0.005157
      f-2     :     0.005684
      f+3     :     0.005178
      f-3     :     0.004523

 58 C s       :     2.733879  s :     2.733879
      pz      :     0.997455  p :     2.986149
      px      :     0.995270
      py      :     0.993424
      dz2     :     0.115966  d :     0.519338
      dxz     :     0.120288
      dyz     :     0.086114
      dx2y2   :     0.093382
      dxy     :     0.103588
      f0      :     0.009445  f :     0.052564
      f+1     :     0.008635
      f-1     :     0.006458
      f+2     :     0.006612
      f-2     :     0.008340
      f+3     :     0.008025
      f-3     :     0.005049

 59 C s       :     2.825680  s :     2.825680
      pz      :     1.056609  p :     3.180829
      px      :     1.053258
      py      :     1.070961
      dz2     :     0.084617  d :     0.262735
      dxz     :     0.044402
      dyz     :     0.023049
      dx2y2   :     0.036429
      dxy     :     0.074239
      f0      :     0.002789  f :     0.024725
      f+1     :     0.005476
      f-1     :     0.002399
      f+2     :     0.004442
      f-2     :     0.003347
      f+3     :     0.003400
      f-3     :     0.002873

 60 C s       :     2.774122  s :     2.774122
      pz      :     1.018648  p :     3.042809
      px      :     1.003968
      py      :     1.020192
      dz2     :     0.072100  d :     0.397390
      dxz     :     0.112222
      dyz     :     0.066719
      dx2y2   :     0.076492
      dxy     :     0.069857
      f0      :     0.006884  f :     0.038021
      f+1     :     0.004599
      f-1     :     0.005139
      f+2     :     0.004463
      f-2     :     0.006797
      f+3     :     0.006275
      f-3     :     0.003864

 61 C s       :     2.773562  s :     2.773562
      pz      :     1.024448  p :     3.062432
      px      :     1.013781
      py      :     1.024204
      dz2     :     0.070977  d :     0.396379
      dxz     :     0.109514
      dyz     :     0.069063
      dx2y2   :     0.078795
      dxy     :     0.068029
      f0      :     0.007541  f :     0.038824
      f+1     :     0.004847
      f-1     :     0.004900
      f+2     :     0.004246
      f-2     :     0.006891
      f+3     :     0.006546
      f-3     :     0.003852

 62 C s       :     2.774981  s :     2.774981
      pz      :     1.010351  p :     3.044323
      px      :     1.009898
      py      :     1.024074
      dz2     :     0.072124  d :     0.397729
      dxz     :     0.109208
      dyz     :     0.061191
      dx2y2   :     0.083475
      dxy     :     0.071730
      f0      :     0.006264  f :     0.038015
      f+1     :     0.005072
      f-1     :     0.004672
      f+2     :     0.004075
      f-2     :     0.007190
      f+3     :     0.006801
      f-3     :     0.003942

 63 C s       :     2.737073  s :     2.737073
      pz      :     1.002942  p :     3.002936
      px      :     1.000831
      py      :     0.999164
      dz2     :     0.117119  d :     0.526082
      dxz     :     0.128634
      dyz     :     0.085031
      dx2y2   :     0.106846
      dxy     :     0.088453
      f0      :     0.010355  f :     0.053294
      f+1     :     0.007541
      f-1     :     0.006603
      f+2     :     0.007762
      f-2     :     0.008464
      f+3     :     0.007468
      f-3     :     0.005101

 64 C s       :     2.828638  s :     2.828638
      pz      :     1.048229  p :     3.181273
      px      :     1.064363
      py      :     1.068682
      dz2     :     0.067926  d :     0.263125
      dxz     :     0.068594
      dyz     :     0.033017
      dx2y2   :     0.046204
      dxy     :     0.047384
      f0      :     0.004299  f :     0.024722
      f+1     :     0.004256
      f-1     :     0.003423
      f+2     :     0.004761
      f-2     :     0.002868
      f+3     :     0.002032
      f-3     :     0.003083

 65 C s       :     2.830377  s :     2.830377
      pz      :     1.070755  p :     3.178973
      px      :     1.040502
      py      :     1.067716
      dz2     :     0.028302  d :     0.264317
      dxz     :     0.090212
      dyz     :     0.029075
      dx2y2   :     0.074316
      dxy     :     0.042412
      f0      :     0.002432  f :     0.024758
      f+1     :     0.004204
      f-1     :     0.002561
      f+2     :     0.002241
      f-2     :     0.003866
      f+3     :     0.005885
      f-3     :     0.003569

 66 H s       :     0.770954  s :     0.770954
      pz      :     0.018140  p :     0.060825
      px      :     0.013003
      py      :     0.029682

 67 H s       :     0.764532  s :     0.764532
      pz      :     0.014451  p :     0.065719
      px      :     0.038368
      py      :     0.012901

 68 H s       :     0.771530  s :     0.771530
      pz      :     0.017408  p :     0.059618
      px      :     0.012581
      py      :     0.029629

 69 H s       :     0.768991  s :     0.768991
      pz      :     0.022561  p :     0.058079
      px      :     0.023156
      py      :     0.012362

 70 H s       :     0.774319  s :     0.774319
      pz      :     0.014773  p :     0.057317
      px      :     0.013328
      py      :     0.029217

 71 H s       :     0.812230  s :     0.812230
      pz      :     0.015356  p :     0.061031
      px      :     0.031374
      py      :     0.014301

 72 H s       :     0.807580  s :     0.807580
      pz      :     0.015115  p :     0.060855
      px      :     0.014711
      py      :     0.031029

 73 H s       :     0.810261  s :     0.810261
      pz      :     0.014201  p :     0.060707
      px      :     0.023011
      py      :     0.023495

 74 H s       :     0.789135  s :     0.789135
      pz      :     0.014042  p :     0.058557
      px      :     0.012869
      py      :     0.031646

 75 H s       :     0.791916  s :     0.791916
      pz      :     0.014814  p :     0.060313
      px      :     0.030456
      py      :     0.015044

 76 H s       :     0.769366  s :     0.769366
      pz      :     0.014393  p :     0.060660
      px      :     0.013463
      py      :     0.032805

 77 H s       :     0.782928  s :     0.782928
      pz      :     0.013035  p :     0.060293
      px      :     0.030936
      py      :     0.016323

 78 H s       :     0.799417  s :     0.799417
      pz      :     0.021757  p :     0.061596
      px      :     0.025547
      py      :     0.014293

 79 H s       :     0.797493  s :     0.797493
      pz      :     0.032160  p :     0.061193
      px      :     0.016564
      py      :     0.012469

 80 H s       :     0.803209  s :     0.803209
      pz      :     0.013381  p :     0.062004
      px      :     0.024780
      py      :     0.023842

 81 H s       :     0.804399  s :     0.804399
      pz      :     0.012308  p :     0.061263
      px      :     0.030837
      py      :     0.018118

 82 H s       :     0.798814  s :     0.798814
      pz      :     0.032979  p :     0.062043
      px      :     0.015046
      py      :     0.014018

 83 H s       :     0.793425  s :     0.793425
      pz      :     0.018112  p :     0.062457
      px      :     0.013264
      py      :     0.031081

 84 H s       :     0.774968  s :     0.774968
      pz      :     0.022233  p :     0.057451
      px      :     0.023017
      py      :     0.012200

 85 H s       :     0.773724  s :     0.773724
      pz      :     0.015619  p :     0.057152
      px      :     0.013099
      py      :     0.028433

 86 H s       :     0.811419  s :     0.811419
      pz      :     0.014096  p :     0.060610
      px      :     0.013712
      py      :     0.032802

 87 H s       :     0.809153  s :     0.809153
      pz      :     0.023663  p :     0.060610
      px      :     0.024182
      py      :     0.012765

 88 H s       :     0.812291  s :     0.812291
      pz      :     0.016126  p :     0.061113
      px      :     0.028563
      py      :     0.016423

 89 H s       :     0.799675  s :     0.799675
      pz      :     0.013884  p :     0.058429
      px      :     0.029383
      py      :     0.015162

 90 H s       :     0.798697  s :     0.798697
      pz      :     0.013355  p :     0.058122
      px      :     0.022976
      py      :     0.021791

 91 H s       :     0.815167  s :     0.815167
      pz      :     0.033879  p :     0.060728
      px      :     0.013363
      py      :     0.013487

 92 H s       :     0.815196  s :     0.815196
      pz      :     0.014555  p :     0.061222
      px      :     0.030706
      py      :     0.015961

 93 H s       :     0.813184  s :     0.813184
      pz      :     0.014326  p :     0.061291
      px      :     0.024120
      py      :     0.022845

 94 H s       :     0.802217  s :     0.802217
      pz      :     0.013145  p :     0.061060
      px      :     0.034462
      py      :     0.013453

 95 H s       :     0.799179  s :     0.799179
      pz      :     0.022538  p :     0.060542
      px      :     0.013244
      py      :     0.024759

 96 H s       :     0.800833  s :     0.800833
      pz      :     0.031020  p :     0.060550
      px      :     0.015232
      py      :     0.014298

 97 H s       :     0.755146  s :     0.755146
      pz      :     0.023403  p :     0.060120
      px      :     0.013913
      py      :     0.022804

 98 H s       :     0.818152  s :     0.818152
      pz      :     0.012462  p :     0.061295
      px      :     0.030982
      py      :     0.017852

 99 H s       :     0.821289  s :     0.821289
      pz      :     0.020859  p :     0.061835
      px      :     0.017376
      py      :     0.023600

100 H s       :     0.820033  s :     0.820033
      pz      :     0.016871  p :     0.061913
      px      :     0.012565
      py      :     0.032477

101 H s       :     0.801573  s :     0.801573
      pz      :     0.015790  p :     0.059654
      px      :     0.025710
      py      :     0.018153

102 H s       :     0.800531  s :     0.800531
      pz      :     0.017203  p :     0.058962
      px      :     0.030191
      py      :     0.011568

103 H s       :     0.790727  s :     0.790727
      pz      :     0.014522  p :     0.060018
      px      :     0.034515
      py      :     0.010981

104 H s       :     0.803644  s :     0.803644
      pz      :     0.018271  p :     0.060353
      px      :     0.015411
      py      :     0.026672

105 H s       :     0.808900  s :     0.808900
      pz      :     0.016417  p :     0.061659
      px      :     0.015672
      py      :     0.029571

106 H s       :     0.801631  s :     0.801631
      pz      :     0.033842  p :     0.061106
      px      :     0.013671
      py      :     0.013593

107 H s       :     0.794612  s :     0.794612
      pz      :     0.014381  p :     0.057701
      px      :     0.031631
      py      :     0.011690

108 H s       :     0.794091  s :     0.794091
      pz      :     0.017155  p :     0.057751
      px      :     0.016781
      py      :     0.023815

109 H s       :     0.802303  s :     0.802303
      pz      :     0.014990  p :     0.059445
      px      :     0.031410
      py      :     0.013045

110 H s       :     0.800518  s :     0.800518
      pz      :     0.016920  p :     0.058146
      px      :     0.016814
      py      :     0.024412

111 H s       :     0.799603  s :     0.799603
      pz      :     0.015649  p :     0.057906
      px      :     0.029675
      py      :     0.012581

112 H s       :     0.800230  s :     0.800230
      pz      :     0.016245  p :     0.057858
      px      :     0.017222
      py      :     0.024390

113 H s       :     0.790266  s :     0.790266
      pz      :     0.015589  p :     0.055715
      px      :     0.015624
      py      :     0.024501

114 H s       :     0.816820  s :     0.816820
      pz      :     0.034059  p :     0.061465
      px      :     0.013421
      py      :     0.013985

115 H s       :     0.814330  s :     0.814330
      pz      :     0.016372  p :     0.060157
      px      :     0.016923
      py      :     0.026861

116 H s       :     0.817018  s :     0.817018
      pz      :     0.013985  p :     0.061392
      px      :     0.020474
      py      :     0.026934

117 H s       :     0.800825  s :     0.800825
      pz      :     0.018453  p :     0.057840
      px      :     0.026327
      py      :     0.013060

118 H s       :     0.801027  s :     0.801027
      pz      :     0.015010  p :     0.057800
      px      :     0.016329
      py      :     0.026461

119 H s       :     0.804492  s :     0.804492
      pz      :     0.019156  p :     0.059538
      px      :     0.026426
      py      :     0.013957

120 H s       :     0.802157  s :     0.802157
      pz      :     0.015101  p :     0.057700
      px      :     0.015931
      py      :     0.026668

121 H s       :     0.801069  s :     0.801069
      pz      :     0.019802  p :     0.057825
      px      :     0.024575
      py      :     0.013447

122 H s       :     0.801180  s :     0.801180
      pz      :     0.014611  p :     0.057798
      px      :     0.016140
      py      :     0.027048

123 H s       :     0.790834  s :     0.790834
      pz      :     0.014414  p :     0.055664
      px      :     0.014408
      py      :     0.026841

124 H s       :     0.817014  s :     0.817014
      pz      :     0.031585  p :     0.061435
      px      :     0.016239
      py      :     0.013611

125 H s       :     0.814557  s :     0.814557
      pz      :     0.014832  p :     0.060133
      px      :     0.015642
      py      :     0.029659

126 H s       :     0.817171  s :     0.817171
      pz      :     0.013425  p :     0.061422
      px      :     0.025271
      py      :     0.022725

127 H s       :     0.801089  s :     0.801089
      pz      :     0.022587  p :     0.057809
      px      :     0.020651
      py      :     0.014570

128 H s       :     0.801152  s :     0.801152
      pz      :     0.014165  p :     0.057793
      px      :     0.014611
      py      :     0.029018

129 H s       :     0.804183  s :     0.804183
      pz      :     0.022962  p :     0.059435
      px      :     0.020602
      py      :     0.015871

130 H s       :     0.802170  s :     0.802170
      pz      :     0.014465  p :     0.057697
      px      :     0.014135
      py      :     0.029096

131 H s       :     0.800990  s :     0.800990
      pz      :     0.023831  p :     0.057780
      px      :     0.018754
      py      :     0.015194

132 H s       :     0.801518  s :     0.801518
      pz      :     0.013985  p :     0.057733
      px      :     0.014209
      py      :     0.029539

133 H s       :     0.793139  s :     0.793139
      pz      :     0.013743  p :     0.055730
      px      :     0.013453
      py      :     0.028534

134 H s       :     0.816557  s :     0.816557
      pz      :     0.026454  p :     0.060412
      px      :     0.020737
      py      :     0.013221

135 H s       :     0.815789  s :     0.815789
      pz      :     0.013997  p :     0.060145
      px      :     0.014788
      py      :     0.031360

136 H s       :     0.818092  s :     0.818092
      pz      :     0.014329  p :     0.061244
      px      :     0.027627
      py      :     0.019288

137 H s       :     0.817655  s :     0.817655
      pz      :     0.027323  p :     0.060366
      px      :     0.019913
      py      :     0.013130

138 H s       :     0.817849  s :     0.817849
      pz      :     0.025117  p :     0.060328
      px      :     0.018090
      py      :     0.017121

139 H s       :     0.816729  s :     0.816729
      pz      :     0.014715  p :     0.060217
      px      :     0.013607
      py      :     0.031895



                      *****************************
                      * MAYER POPULATION ANALYSIS *
                      *****************************

  NA   - Mulliken gross atomic population
  ZA   - Total nuclear charge
  QA   - Mulliken gross atomic charge
  VA   - Mayer's total valence
  BVA  - Mayer's bonded valence
  FA   - Mayer's free valence

  ATOM       NA         ZA         QA         VA         BVA        FA
  0 Mg    11.1914    12.0000     0.8086     1.8699     1.8699    -0.0000
  1 C      6.1290     6.0000    -0.1290     3.8794     3.8794    -0.0000
  2 C      6.3374     6.0000    -0.3374     4.0137     4.0137    -0.0000
  3 C      6.3483     6.0000    -0.3483     3.9576     3.9576     0.0000
  4 C      6.2866     6.0000    -0.2866     3.8797     3.8797    -0.0000
  5 N      7.4366     7.0000    -0.4366     2.7819     2.7819    -0.0000
  6 C      5.7398     6.0000     0.2602     3.3092     3.3092    -0.0000
  7 C      6.1159     6.0000    -0.1159     3.6817     3.6817    -0.0000
  8 C      6.1557     6.0000    -0.1557     3.8000     3.8000    -0.0000
  9 C      5.8725     6.0000     0.1275     3.9282     3.9282    -0.0000
 10 C      6.4862     6.0000    -0.4862     3.8331     3.8331    -0.0000
 11 C      6.4040     6.0000    -0.4040     3.7664     3.7664    -0.0000
 12 C      6.3266     6.0000    -0.3266     3.6351     3.6351    -0.0000
 13 C      5.5921     6.0000     0.4079     4.2051     4.2051    -0.0000
 14 O      8.4068     8.0000    -0.4068     2.0646     2.0646     0.0000
 15 O      8.2773     8.0000    -0.2773     2.0277     2.0277     0.0000
 16 N      7.4413     7.0000    -0.4413     2.9358     2.9358     0.0000
 17 C      5.7246     6.0000     0.2754     3.7866     3.7866     0.0000
 18 C      5.9685     6.0000     0.0315     3.7128     3.7128    -0.0000
 19 C      6.0395     6.0000    -0.0395     3.6412     3.6412    -0.0000
 20 C      5.7749     6.0000     0.2251     3.9106     3.9106     0.0000
 21 C      6.5356     6.0000    -0.5356     3.8169     3.8169    -0.0000
 22 C      5.7221     6.0000     0.2779     3.8837     3.8837    -0.0000
 23 O      8.4051     8.0000    -0.4051     2.0078     2.0078     0.0000
 24 C      6.5178     6.0000    -0.5178     3.7729     3.7729    -0.0000
 25 N      7.3708     7.0000    -0.3708     2.8430     2.8430    -0.0000
 26 C      5.8052     6.0000     0.1948     3.7548     3.7548     0.0000
 27 C      6.1852     6.0000    -0.1852     3.8372     3.8372    -0.0000
 28 C      6.0845     6.0000    -0.0845     3.6975     3.6975    -0.0000
 29 C      5.8970     6.0000     0.1030     3.8683     3.8683     0.0000
 30 C      6.4846     6.0000    -0.4846     3.8488     3.8488    -0.0000
 31 C      6.3123     6.0000    -0.3123     3.7748     3.7748    -0.0000
 32 C      6.4716     6.0000    -0.4716     3.8042     3.8042    -0.0000
 33 N      7.4767     7.0000    -0.4767     2.8659     2.8659     0.0000
 34 C      5.7826     6.0000     0.2174     3.8573     3.8573    -0.0000
 35 C      6.0176     6.0000    -0.0176     3.7386     3.7386     0.0000
 36 C      6.0128     6.0000    -0.0128     3.5154     3.5154    -0.0000
 37 C      5.7485     6.0000     0.2515     3.7760     3.7760     0.0000
 38 C      6.5498     6.0000    -0.5498     3.8112     3.8112     0.0000
 39 C      5.8503     6.0000     0.1497     4.3072     4.3072    -0.0000
 40 O      8.3517     8.0000    -0.3517     2.1337     2.1337    -0.0000
 41 C      6.2187     6.0000    -0.2187     3.5800     3.5800    -0.0000
 42 C      5.6181     6.0000     0.3819     4.1794     4.1794     0.0000
 43 O      8.3869     8.0000    -0.3869     2.0866     2.0866    -0.0000
 44 O      8.2705     8.0000    -0.2705     2.0608     2.0608     0.0000
 45 C      6.2827     6.0000    -0.2827     3.8310     3.8310    -0.0000
 46 C      6.2296     6.0000    -0.2296     3.8553     3.8553    -0.0000
 47 C      6.1793     6.0000    -0.1793     3.6747     3.6747    -0.0000
 48 C      5.9293     6.0000     0.0707     3.6640     3.6640     0.0000
 49 C      6.4970     6.0000    -0.4970     3.8286     3.8286    -0.0000
 50 C      6.3362     6.0000    -0.3362     3.7216     3.7216    -0.0000
 51 C      6.3308     6.0000    -0.3308     3.6726     3.6726    -0.0000
 52 C      6.3336     6.0000    -0.3336     3.7156     3.7156     0.0000
 53 C      6.0570     6.0000    -0.0570     3.6811     3.6811    -0.0000
 54 C      6.5054     6.0000    -0.5054     3.8064     3.8064     0.0000
 55 C      6.3322     6.0000    -0.3322     3.7165     3.7165    -0.0000
 56 C      6.3195     6.0000    -0.3195     3.7139     3.7139     0.0000
 57 C      6.3322     6.0000    -0.3322     3.7169     3.7169    -0.0000
 58 C      6.0556     6.0000    -0.0556     3.6821     3.6821     0.0000
 59 C      6.5059     6.0000    -0.5059     3.8064     3.8064    -0.0000
 60 C      6.3293     6.0000    -0.3293     3.7149     3.7149    -0.0000
 61 C      6.3234     6.0000    -0.3234     3.7257     3.7257    -0.0000
 62 C      6.3115     6.0000    -0.3115     3.6772     3.6772    -0.0000
 63 C      6.0740     6.0000    -0.0740     3.7590     3.7590     0.0000
 64 C      6.4826     6.0000    -0.4826     3.7903     3.7903    -0.0000
 65 C      6.4694     6.0000    -0.4694     3.8197     3.8197    -0.0000
 66 H      0.8176     1.0000     0.1824     0.9544     0.9544     0.0000
 67 H      0.7922     1.0000     0.2078     0.9682     0.9682     0.0000
 68 H      0.7980     1.0000     0.2020     0.9398     0.9398    -0.0000
 69 H      0.7968     1.0000     0.2032     0.9280     0.9280    -0.0000
 70 H      0.8110     1.0000     0.1890     0.9339     0.9339    -0.0000
 71 H      0.8408     1.0000     0.1592     0.9581     0.9581    -0.0000
 72 H      0.8332     1.0000     0.1668     0.9519     0.9519    -0.0000
 73 H      0.8344     1.0000     0.1656     0.9551     0.9551    -0.0000
 74 H      0.8105     1.0000     0.1895     0.9546     0.9546     0.0000
 75 H      0.8046     1.0000     0.1954     0.9579     0.9579     0.0000
 76 H      0.8007     1.0000     0.1993     0.9575     0.9575    -0.0000
 77 H      0.8162     1.0000     0.1838     0.9635     0.9635    -0.0000
 78 H      0.8153     1.0000     0.1847     0.9389     0.9389     0.0000
 79 H      0.8062     1.0000     0.1938     0.9328     0.9328    -0.0000
 80 H      0.8348     1.0000     0.1652     0.9655     0.9655    -0.0000
 81 H      0.8330     1.0000     0.1670     0.9796     0.9796     0.0000
 82 H      0.8189     1.0000     0.1811     0.9464     0.9464    -0.0000
 83 H      0.8158     1.0000     0.1842     0.9463     0.9463     0.0000
 84 H      0.8142     1.0000     0.1858     0.9321     0.9321     0.0000
 85 H      0.8243     1.0000     0.1757     0.9400     0.9400    -0.0000
 86 H      0.8367     1.0000     0.1633     0.9550     0.9550    -0.0000
 87 H      0.8373     1.0000     0.1627     0.9506     0.9506    -0.0000
 88 H      0.8394     1.0000     0.1606     0.9575     0.9575     0.0000
 89 H      0.8397     1.0000     0.1603     0.9539     0.9539    -0.0000
 90 H      0.8375     1.0000     0.1625     0.9517     0.9517    -0.0000
 91 H      0.8399     1.0000     0.1601     0.9565     0.9565     0.0000
 92 H      0.8429     1.0000     0.1571     0.9513     0.9513    -0.0000
 93 H      0.8457     1.0000     0.1543     0.9549     0.9549    -0.0000
 94 H      0.8343     1.0000     0.1657     0.9651     0.9651    -0.0000
 95 H      0.8184     1.0000     0.1816     0.9385     0.9385     0.0000
 96 H      0.8255     1.0000     0.1745     0.9414     0.9414    -0.0000
 97 H      0.7896     1.0000     0.2104     0.9514     0.9514     0.0000
 98 H      0.8341     1.0000     0.1659     0.9572     0.9572     0.0000
 99 H      0.8365     1.0000     0.1635     0.9512     0.9512     0.0000
100 H      0.8334     1.0000     0.1666     0.9525     0.9525     0.0000
101 H      0.8195     1.0000     0.1805     0.9663     0.9663     0.0000
102 H      0.8047     1.0000     0.1953     0.9364     0.9364     0.0000
103 H      0.8341     1.0000     0.1659     0.9652     0.9652     0.0000
104 H      0.8328     1.0000     0.1672     0.9471     0.9471    -0.0000
105 H      0.8399     1.0000     0.1601     0.9574     0.9574    -0.0000
106 H      0.8231     1.0000     0.1769     0.9432     0.9432    -0.0000
107 H      0.8339     1.0000     0.1661     0.9603     0.9603    -0.0000
108 H      0.8269     1.0000     0.1731     0.9512     0.9512    -0.0000
109 H      0.8290     1.0000     0.1710     0.9425     0.9425     0.0000
110 H      0.8419     1.0000     0.1581     0.9595     0.9595     0.0000
111 H      0.8423     1.0000     0.1577     0.9553     0.9553     0.0000
112 H      0.8404     1.0000     0.1596     0.9571     0.9571     0.0000
113 H      0.8553     1.0000     0.1447     0.9446     0.9446    -0.0000
114 H      0.8420     1.0000     0.1580     0.9537     0.9537    -0.0000
115 H      0.8473     1.0000     0.1527     0.9542     0.9542     0.0000
116 H      0.8429     1.0000     0.1571     0.9534     0.9534     0.0000
117 H      0.8451     1.0000     0.1549     0.9556     0.9556    -0.0000
118 H      0.8418     1.0000     0.1582     0.9565     0.9565    -0.0000
119 H      0.8412     1.0000     0.1588     0.9479     0.9479     0.0000
120 H      0.8478     1.0000     0.1522     0.9528     0.9528     0.0000
121 H      0.8455     1.0000     0.1545     0.9556     0.9556    -0.0000
122 H      0.8422     1.0000     0.1578     0.9566     0.9566    -0.0000
123 H      0.8572     1.0000     0.1428     0.9451     0.9451     0.0000
124 H      0.8420     1.0000     0.1580     0.9531     0.9531    -0.0000
125 H      0.8480     1.0000     0.1520     0.9545     0.9545    -0.0000
126 H      0.8429     1.0000     0.1571     0.9536     0.9536    -0.0000
127 H      0.8458     1.0000     0.1542     0.9554     0.9554     0.0000
128 H      0.8429     1.0000     0.1571     0.9566     0.9566    -0.0000
129 H      0.8390     1.0000     0.1610     0.9448     0.9448    -0.0000
130 H      0.8489     1.0000     0.1511     0.9522     0.9522     0.0000
131 H      0.8504     1.0000     0.1496     0.9570     0.9570     0.0000
132 H      0.8443     1.0000     0.1557     0.9574     0.9574     0.0000
133 H      0.8685     1.0000     0.1315     0.9412     0.9412    -0.0000
134 H      0.8466     1.0000     0.1534     0.9578     0.9578    -0.0000
135 H      0.8510     1.0000     0.1490     0.9563     0.9563     0.0000
136 H      0.8457     1.0000     0.1543     0.9522     0.9522    -0.0000
137 H      0.8481     1.0000     0.1519     0.9576     0.9576    -0.0000
138 H      0.8499     1.0000     0.1501     0.9565     0.9565    -0.0000
139 H      0.8522     1.0000     0.1478     0.9563     0.9563    -0.0000

  Mayer bond orders larger than 0.100000
B(  0-Mg,  5-N ) :   0.3991 B(  0-Mg, 16-N ) :   0.5605 B(  0-Mg, 25-N ) :   0.4047 
B(  0-Mg, 33-N ) :   0.5841 B(  1-C ,  5-N ) :   0.1156 B(  1-C ,  6-C ) :   1.4019 
B(  1-C , 37-C ) :   1.2501 B(  1-C , 41-C ) :   0.9194 B(  2-C ,  9-C ) :   1.5684 
B(  2-C , 17-C ) :   1.3060 B(  2-C , 66-H ) :   0.8456 B(  3-C , 20-C ) :   1.3797 
B(  3-C , 26-C ) :   1.4808 B(  3-C , 67-H ) :   0.8505 B(  4-C , 29-C ) :   1.5583 
B(  4-C , 34-C ) :   1.3047 B(  4-C , 68-H ) :   0.8703 B(  5-N ,  6-C ) :   1.0098 
B(  5-N ,  9-C ) :   1.2094 B(  6-C ,  7-C ) :   0.8893 B(  7-C ,  8-C ) :   0.9222 
B(  7-C , 11-C ) :   0.8492 B(  7-C , 69-H ) :   1.0157 B(  8-C ,  9-C ) :   0.9332 
B(  8-C , 10-C ) :   0.8982 B(  8-C , 70-H ) :   1.0101 B( 10-C , 71-H ) :   0.9655 
B( 10-C , 72-H ) :   0.9668 B( 10-C , 73-H ) :   0.9762 B( 11-C , 12-C ) :   0.8665 
B( 11-C , 74-H ) :   0.9720 B( 11-C , 75-H ) :   0.9878 B( 12-C , 13-C ) :   0.9820 
B( 12-C , 76-H ) :   0.9343 B( 12-C , 77-H ) :   0.9508 B( 13-C , 14-O ) :   1.9540 
B( 13-C , 15-O ) :   1.2089 B( 15-O , 46-C ) :   0.8226 B( 16-N , 17-C ) :   1.1751 
B( 16-N , 20-C ) :   1.1994 B( 17-C , 18-C ) :   1.2650 B( 18-C , 19-C ) :   1.5168 
B( 18-C , 21-C ) :   0.8516 B( 19-C , 20-C ) :   1.2133 B( 19-C , 22-C ) :   0.9592 
B( 21-C , 78-H ) :   0.9911 B( 21-C , 79-H ) :   0.9633 B( 21-C , 80-H ) :   0.9648 
B( 22-C , 23-O ) :   1.9292 B( 22-C , 24-C ) :   0.9767 B( 24-C , 81-H ) :   0.9664 
B( 24-C , 82-H ) :   0.9644 B( 24-C , 83-H ) :   0.9352 B( 25-N , 26-C ) :   1.2024 
B( 25-N , 29-C ) :   1.1607 B( 26-C , 27-C ) :   0.9345 B( 27-C , 28-C ) :   0.9277 
B( 27-C , 30-C ) :   0.9157 B( 27-C , 84-H ) :   1.0083 B( 28-C , 29-C ) :   0.9341 
B( 28-C , 31-C ) :   0.8876 B( 28-C , 85-H ) :   0.9948 B( 30-C , 86-H ) :   0.9756 
B( 30-C , 87-H ) :   0.9632 B( 30-C , 88-H ) :   0.9694 B( 31-C , 32-C ) :   0.9116 
B( 31-C , 89-H ) :   0.9788 B( 31-C , 90-H ) :   0.9782 B( 32-C , 91-H ) :   0.9753 
B( 32-C , 92-H ) :   0.9677 B( 32-C , 93-H ) :   0.9640 B( 33-N , 34-C ) :   1.1415 
B( 33-N , 37-C ) :   1.2189 B( 34-C , 35-C ) :   1.3107 B( 35-C , 36-C ) :   1.4483 
B( 35-C , 38-C ) :   0.8554 B( 36-C , 37-C ) :   1.2814 B( 36-C , 39-C ) :   0.9851 
B( 36-C , 40-O ) :  -0.1085 B( 38-C , 94-H ) :   0.9896 B( 38-C , 95-H ) :   0.9661 
B( 38-C , 96-H ) :   0.9682 B( 39-C , 40-O ) :   2.1563 B( 39-C , 41-C ) :   0.9834 
B( 41-C , 42-C ) :   0.9425 B( 41-C , 97-H ) :   0.9523 B( 42-C , 43-O ) :   1.9867 
B( 42-C , 44-O ) :   1.1781 B( 44-O , 45-C ) :   0.8769 B( 45-C , 98-H ) :   0.9652 
B( 45-C , 99-H ) :   0.9670 B( 45-C ,100-H ) :   0.9679 B( 46-C , 47-C ) :   0.9260 
B( 46-C ,101-H ) :   0.9961 B( 46-C ,102-H ) :   0.9777 B( 47-C , 48-C ) :   1.8364 
B( 47-C ,103-H ) :   0.9490 B( 48-C , 49-C ) :   0.9267 B( 48-C , 50-C ) :   0.9161 
B( 49-C ,104-H ) :   0.9615 B( 49-C ,105-H ) :   0.9760 B( 49-C ,106-H ) :   0.9579 
B( 50-C , 51-C ) :   0.8557 B( 50-C ,107-H ) :   1.0013 B( 50-C ,108-H ) :   0.9886 
B( 51-C , 52-C ) :   0.8877 B( 51-C ,109-H ) :   0.9948 B( 51-C ,110-H ) :   0.9755 
B( 52-C , 53-C ) :   0.9256 B( 52-C ,111-H ) :   0.9958 B( 52-C ,112-H ) :   0.9717 
B( 53-C , 54-C ) :   0.9219 B( 53-C , 55-C ) :   0.9240 B( 53-C ,113-H ) :   0.9860 
B( 54-C ,114-H ) :   0.9796 B( 54-C ,115-H ) :   0.9597 B( 54-C ,116-H ) :   0.9796 
B( 55-C , 56-C ) :   0.8897 B( 55-C ,117-H ) :   0.9992 B( 55-C ,118-H ) :   0.9737 
B( 56-C , 57-C ) :   0.8905 B( 56-C ,119-H ) :   0.9929 B( 56-C ,120-H ) :   0.9820 
B( 57-C , 58-C ) :   0.9236 B( 57-C ,121-H ) :   1.0001 B( 57-C ,122-H ) :   0.9731 
B( 58-C , 59-C ) :   0.9213 B( 58-C , 60-C ) :   0.9255 B( 58-C ,123-H ) :   0.9866 
B( 59-C ,124-H ) :   0.9798 B( 59-C ,125-H ) :   0.9597 B( 59-C ,126-H ) :   0.9797 
B( 60-C , 61-C ) :   0.8945 B( 60-C ,127-H ) :   0.9997 B( 60-C ,128-H ) :   0.9715 
B( 61-C , 62-C ) :   0.8979 B( 61-C ,129-H ) :   0.9924 B( 61-C ,130-H ) :   0.9772 
B( 62-C , 63-C ) :   0.9308 B( 62-C ,131-H ) :   0.9859 B( 62-C ,132-H ) :   0.9762 
B( 63-C , 64-C ) :   0.9394 B( 63-C , 65-C ) :   0.9630 B( 63-C ,133-H ) :   0.9826 
B( 64-C ,134-H ) :   0.9765 B( 64-C ,135-H ) :   0.9599 B( 64-C ,136-H ) :   0.9771 
B( 65-C ,137-H ) :   0.9805 B( 65-C ,138-H ) :   0.9772 B( 65-C ,139-H ) :   0.9612 


-------
TIMINGS
-------

Total SCF time: 0 days 1 hours 54 min 39 sec 

Total time                  ....    6879.805 sec
Sum of individual times     ....    6665.545 sec  ( 96.9%)

SCF preparation             ....      19.447 sec  (  0.3%)
Fock matrix formation       ....    6528.299 sec  ( 94.9%)
  Startup                   ....       0.808 sec  (  0.0% of F)
  Split-RI-J                ....     403.686 sec  (  6.2% of F)
  Chain of spheres X        ....    5091.395 sec  ( 78.0% of F)
  XC integration            ....     711.387 sec  ( 10.9% of F)
    XC Preparation          ....       0.000 sec  (  0.0% of XC)
    Basis function eval.    ....     116.035 sec  ( 16.3% of XC)
    Density eval.           ....     326.752 sec  ( 45.9% of XC)
    XC-Functional eval.     ....      10.510 sec  (  1.5% of XC)
    XC-Potential eval.      ....     246.252 sec  ( 34.6% of XC)
  CPCM terms                ....     536.500 sec  (  8.2% of F)
Diagonalization             ....       0.000 sec  (  0.0%)
Density matrix formation    ....       7.891 sec  (  0.1%)
Total Energy calculation    ....       3.621 sec  (  0.1%)
Population analysis         ....       3.676 sec  (  0.1%)
Orbital Transformation      ....      10.465 sec  (  0.2%)
Orbital Orthonormalization  ....       0.000 sec  (  0.0%)
DIIS solution               ....      47.500 sec  (  0.7%)
SOSCF solution              ....      36.878 sec  (  0.5%)
Finished LeanSCF after 6891.4 sec

Maximum memory used throughout the entire LEANSCF-calculation: 703.7 MB


           ************************************************************
           *        Program running with 4 parallel MPI-processes     *
           *              working on a common directory               *
           ************************************************************

------------------------------------------------------------------------------
                         ORCA PROPERTY INTEGRAL CALCULATIONS
------------------------------------------------------------------------------

GBWName                                   ... tddft.gbw
Number of atoms                           ...    140
Number of basis functions                 ...   2491
Max core memory                           ...   2200 MB

Dipole integrals                          ... YES
Quadrupole integrals                      ...  NO
Linear momentum integrals                 ... YES
Angular momentum integrals                ... YES
Higher moments length integrals           ...  NO
Higher moments velocity integrals         ...  NO
Kinetic energy integrals                  ...  NO
GIAO right hand sides                     ...  NO
GIAO dipole derivative integrals          ...  NO
SOC integrals                             ...  NO
EPR diamagnetic integrals (GIAO)          ...  NO
EPR gauge integrals                       ...  NO
Field gradient integrals                  ...  NO (   0 nuclei)
Spin-dipole/Fermi contact integrals       ...  NO (   0 nuclei)
Contact density integrals                 ...  NO (   0 nuclei)
Nucleus-orbit integrals                   ...  NO (   0 nuclei)
Geometric perturbations                   ...  NO ( 140 nuclei)

Choice of electric origin   ... Center of mass
Position of electric origin ... ( 74.6342, 99.1885, 41.9481) 
Choice of magnetic origin   ... GIAO
Position of magnetic origin ... (  0.0000,  0.0000,  0.0000) 

Calculating integrals                     ... Electric Dipole (Length)     done (  0.5 sec)
Calculating integrals                     ... Linear Momentum              done (  1.1 sec)
Calculating integrals                     ... Angular Momentum  (ElOri)    done (  1.2 sec)

Property integrals calculated in   3.0 sec

Maximum memory used throughout the entire PROPINT-calculation: 507.9 MB


           ************************************************************
           *        Program running with 4 parallel MPI-processes     *
           *              working on a common directory               *
           ************************************************************
------------------------------------------------------------------------------
                          ORCA TD-DFT CALCULATION
------------------------------------------------------------------------------

Input orbitals are from        ... tddft.gbw
CI-vector output               ... tddft.cis
Solver                         ... FN-2001
Tamm-Dancoff approximation     ... deactivated
RPA-Integral strategy          ... AO-integrals
Integral handling              ... AO integral Direct
Max. core memory used          ... 2200 MB
Reference state                ... RHF
Generation of triplets         ... off
Follow IRoot                   ... off
Number of operators            ... 1
Orbital ranges used for CIS calculation:
 Operator 0:  Orbitals  66...245  to 246...2490
XAS localization array:
 Operator 0:  Orbitals  -1... -1

-------------------
XC-INTEGRATION GRID
-------------------

General Integration Accuracy     IntAcc      ... 3.467
Radial Grid Type                 RadialGrid  ... OptM3 with GC (2021)
Angular Grid (max. ang.)         AngularGrid ... 3 (Lebedev-194)
Angular grid pruning method      GridPruning ... 4 (adaptive)
Weight generation scheme         WeightScheme... mBecke (2022)
Basis function cutoff            BFCut       ... 1.0000e-11
Integration weight cutoff        WCut        ... 1.0000e-14
Partially contracted basis set               ... off
Rotationally invariant grid construction     ... off
Angular grids for H and He will be reduced by one unit

Total number of grid points                  ...   233979
Total number of batches                      ...     3734
Average number of points per batch           ...       62
Average number of grid points per atom       ...     1671

---------------------
COSX-INTEGRATION GRID
---------------------

General Integration Accuracy     IntAcc      ... 3.067
Radial Grid Type                 RadialGrid  ... OptM3 with GC (2021)
Angular Grid (max. ang.)         AngularGrid ... 2 (Lebedev-110)
Angular grid pruning method      GridPruning ... 4 (adaptive)
Weight generation scheme         WeightScheme... mBecke (2022)
Basis function cutoff            BFCut       ... 1.0000e-11
Integration weight cutoff        WCut        ... 1.0000e-14
Partially contracted basis set               ... on
Rotationally invariant grid construction     ... off
Angular grids for H and He will be reduced by one unit

Total number of grid points                  ...    91933
Total number of batches                      ...      797
Average number of points per batch           ...      115
Average number of grid points per atom       ...      657

---------------
TD-DFT XC SETUP
---------------

DFT calculation                         ... on
Name of the grid file                   ... tddft.grid_cis.tmp
RI-approximation                        ... on
Aux-basis dimension                     ... 0
Exchange functional (TD-DFT)            ... M062X
Correlation functional (TD-DFT)         ... M062X
Hybrid DFT                              ... on
   Exchange mixing (TD-DFT)             ...  0.540
   GGA exch. scaling (TD-DFT)           ...  0.460
   GGA corr. scaling (TD-DFT)           ...  1.000

Building densities             ... done
Calculating rho(r) on the grid ... done
Building xc-kernel on the grid ... done
                    *** TD-DFT CALCULATION INITIALIZED ***

---------------------------------
    LR-CPCM (non-equilibrium)
---------------------------------

Setting up CPCM data             ... done

-------------------
RPA-DIAGONALIZATION
-------------------

Dimension of the (A+B)(A-B) eigenvalue problem ... 404100
Number of roots to be determined               ...     30
Maximum size of the expansion space            ...    900
Convergence tolerance for the residual         ...    2.500e-07
Convergence tolerance for the energies         ...    2.500e-07
Orthogonality tolerance                        ...    1.000e-14
Constructing the preconditioner                ... o.k.
Building the initial guess                     ... o.k.
Number of trial vectors determined             ...    900


                       ****Iteration    0****
   Time for iteration     :  TOTAL=8150.5 TRAFO=50.7 RIJ=800.1 COSX=4439.2 XC=951.6 CPCM=1889.5
   Size of expansion space: 90
   Lowest Energy          :     0.076013334814
   Maximum Energy change  :     0.220280092195 (vector 29)
   Maximum residual norm  :     0.041198754076

                       ****Iteration    1****
   Time for iteration     :  TOTAL=2610.4 TRAFO=16.0 RIJ=267.8 COSX=1350.3 XC=354.7 CPCM=614.5
   Size of expansion space: 120
   Lowest Energy          :     0.061269576038
   Maximum Energy change  :     0.014743758775 (vector 0)
   Maximum residual norm  :     0.007125163428

                       ****Iteration    2****
   Time for iteration     :  TOTAL=2688.6 TRAFO=16.2 RIJ=290.7 COSX=1418.3 XC=354.5 CPCM=602.8
   Size of expansion space: 150
   Lowest Energy          :     0.059785029082
   Maximum Energy change  :     0.009361360392 (vector 7)
   Maximum residual norm  :     0.006542485205

                       ****Iteration    3****
   Time for iteration     :  TOTAL=2683.4 TRAFO=15.9 RIJ=268.8 COSX=1421.5 XC=362.0 CPCM=607.6
   Size of expansion space: 180
   Lowest Energy          :     0.059574680621
   Maximum Energy change  :     0.005361676270 (vector 23)
   Maximum residual norm  :     0.001591300895

                       ****Iteration    4****
   Time for iteration     :  TOTAL=2717.4 TRAFO=16.7 RIJ=272.0 COSX=1448.5 XC=364.6 CPCM=608.2
   Size of expansion space: 210
   Lowest Energy          :     0.059531804787
   Maximum Energy change  :     0.001246469145 (vector 20)
   Maximum residual norm  :     0.000419133390

                       ****Iteration    5****
   Time for iteration     :  TOTAL=2731.8 TRAFO=16.0 RIJ=284.6 COSX=1435.3 XC=380.9 CPCM=608.1
   Size of expansion space: 240
   Lowest Energy          :     0.059528570229
   Maximum Energy change  :     0.000341423551 (vector 26)
   Maximum residual norm  :     0.000160417887

                       ****Iteration    6****
   Time for iteration     :  TOTAL=2767.1 TRAFO=15.8 RIJ=275.5 COSX=1480.8 XC=374.9 CPCM=613.2
   Size of expansion space: 270
   Lowest Energy          :     0.059527491390
   Maximum Energy change  :     0.000214955287 (vector 26)
   Maximum residual norm  :     0.000142980911

                       ****Iteration    7****
   Time for iteration     :  TOTAL=2777.0 TRAFO=15.4 RIJ=279.5 COSX=1498.0 XC=379.1 CPCM=597.9
   Size of expansion space: 300
   Lowest Energy          :     0.059527309579
   Maximum Energy change  :     0.000126803469 (vector 26)
   Maximum residual norm  :     0.000051841192

                       ****Iteration    8****
   Time for iteration     :  TOTAL=2617.4 TRAFO=15.6 RIJ=262.8 COSX=1376.9 XC=361.8 CPCM=593.8
   Size of expansion space: 330
   Lowest Energy          :     0.059527297240
   Maximum Energy change  :     0.000188763098 (vector 29)
   Maximum residual norm  :     0.000348093025

                       ****Iteration    9****
   Time for iteration     :  TOTAL=2439.9 TRAFO=14.7 RIJ=251.9 COSX=1281.7 XC=340.8 CPCM=544.6
   Size of expansion space: 360
   Lowest Energy          :     0.059527286666
   Maximum Energy change  :     0.000242201148 (vector 29)
   Maximum residual norm  :     0.000059881532

                       ****Iteration   10****
   Time for iteration     :  TOTAL=2438.5 TRAFO=14.7 RIJ=251.8 COSX=1282.6 XC=336.6 CPCM=546.5
   Size of expansion space: 390
   Lowest Energy          :     0.059527286080
   Maximum Energy change  :     0.000049582604 (vector 29)
   Maximum residual norm  :     0.000041464986

                       ****Iteration   11****
   Time for iteration     :  TOTAL=2440.0 TRAFO=14.7 RIJ=253.6 COSX=1274.4 XC=343.8 CPCM=547.3
   Size of expansion space: 420
   Lowest Energy          :     0.059527285954
   Maximum Energy change  :     0.000019203345 (vector 29)
   Maximum residual norm  :     0.000004616136

                       ****Iteration   12****
   Time for iteration     :  TOTAL=2454.1 TRAFO=14.6 RIJ=254.0 COSX=1292.9 XC=341.5 CPCM=545.0
   Size of expansion space: 450
   Lowest Energy          :     0.059527285934
   Maximum Energy change  :     0.000003654883 (vector 29)
   Maximum residual norm  :     0.000003102080

                       ****Iteration   13****
   Time for iteration     :  TOTAL=2447.2 TRAFO=14.8 RIJ=254.5 COSX=1279.8 XC=345.7 CPCM=546.2
   Size of expansion space: 480
   Lowest Energy          :     0.059527285932
   Maximum Energy change  :     0.000001455848 (vector 29)
   Maximum residual norm  :     0.000000330201

                       ****Iteration   14****
   Time for iteration     :  TOTAL=2461.8 TRAFO=14.7 RIJ=254.7 COSX=1293.8 XC=345.1 CPCM=547.5
   Size of expansion space: 510
   Lowest Energy          :     0.059527285932
   Maximum Energy change  :     0.000000214291 (vector 29)

         *** CONVERGENCE OF ENERGIES REACHED ***

Storing the converged CI vectors               ... tddft.cis1

                 *** DAVIDSON DONE ***

Total time for solving the RPA problem: 45392.312sec

--------------------------------
TD-DFT EXCITED STATES (SINGLETS)
--------------------------------

the weight of the individual excitations are printed if larger than 1.0e-02

STATE  1:  E=   0.059527 au      1.620 eV    13064.7 cm**-1 <S**2> =   0.000000 Mult 1
   244a -> 247a  :     0.017801 
   245a -> 246a  :     0.967634 

STATE  2:  E=   0.084505 au      2.299 eV    18546.6 cm**-1 <S**2> =   0.000000 Mult 1
   244a -> 246a  :     0.878457 
   245a -> 247a  :     0.101039 

STATE  3:  E=   0.126362 au      3.438 eV    27733.3 cm**-1 <S**2> =   0.000000 Mult 1
   241a -> 246a  :     0.018683 
   242a -> 246a  :     0.011343 
   244a -> 246a  :     0.090892 
   245a -> 247a  :     0.853031 

STATE  4:  E=   0.131930 au      3.590 eV    28955.4 cm**-1 <S**2> =   0.000000 Mult 1
   240a -> 246a  :     0.023639 
   241a -> 246a  :     0.060199 
   242a -> 246a  :     0.765611 
   243a -> 246a  :     0.088950 
   245a -> 247a  :     0.017053 

STATE  5:  E=   0.138503 au      3.769 eV    30397.8 cm**-1 <S**2> =   0.000000 Mult 1
   237a -> 246a  :     0.027170 
   237a -> 248a  :     0.017960 
   237a -> 249a  :     0.015265 
   238a -> 246a  :     0.383003 
   238a -> 247a  :     0.063886 
   238a -> 248a  :     0.125045 
   238a -> 249a  :     0.181010 
   238a -> 261a  :     0.012352 
   240a -> 246a  :     0.013383 
   245a -> 248a  :     0.082204 

STATE  6:  E=   0.140086 au      3.812 eV    30745.2 cm**-1 <S**2> =   0.000000 Mult 1
   237a -> 246a  :     0.015593 
   238a -> 246a  :     0.024431 
   238a -> 248a  :     0.013525 
   239a -> 246a  :     0.083893 
   239a -> 248a  :     0.052706 
   239a -> 249a  :     0.014706 
   241a -> 246a  :     0.071497 
   244a -> 247a  :     0.054087 
   245a -> 248a  :     0.571772 
   245a -> 249a  :     0.026693 

STATE  7:  E=   0.140802 au      3.831 eV    30902.5 cm**-1 <S**2> =   0.000000 Mult 1
   239a -> 246a  :     0.369893 
   239a -> 248a  :     0.210782 
   239a -> 249a  :     0.057604 
   240a -> 246a  :     0.042907 
   241a -> 246a  :     0.176419 
   242a -> 246a  :     0.010790 
   244a -> 247a  :     0.011000 
   245a -> 248a  :     0.038400 

STATE  8:  E=   0.141201 au      3.842 eV    30990.0 cm**-1 <S**2> =   0.000000 Mult 1
   239a -> 246a  :     0.065062 
   239a -> 248a  :     0.034704 
   240a -> 246a  :     0.016088 
   241a -> 246a  :     0.559993 
   242a -> 246a  :     0.072695 
   245a -> 248a  :     0.181659 

STATE  9:  E=   0.146178 au      3.978 eV    32082.4 cm**-1 <S**2> =   0.000000 Mult 1
   241a -> 246a  :     0.016737 
   244a -> 247a  :     0.799557 
   245a -> 246a  :     0.019439 
   245a -> 248a  :     0.075342 
   245a -> 249a  :     0.057382 

STATE 10:  E=   0.155196 au      4.223 eV    34061.6 cm**-1 <S**2> =   0.000000 Mult 1
   235a -> 246a  :     0.034286 
   240a -> 246a  :     0.826500 
   241a -> 246a  :     0.058932 
   243a -> 246a  :     0.011090 

STATE 11:  E=   0.159226 au      4.333 eV    34946.0 cm**-1 <S**2> =   0.000000 Mult 1
   244a -> 247a  :     0.069519 
   244a -> 248a  :     0.010762 
   245a -> 249a  :     0.738269 
   245a -> 250a  :     0.130257 

STATE 12:  E=   0.160316 au      4.362 eV    35185.4 cm**-1 <S**2> =   0.000000 Mult 1
   244a -> 247a  :     0.013504 
   245a -> 249a  :     0.111312 
   245a -> 250a  :     0.847272 

STATE 13:  E=   0.162677 au      4.427 eV    35703.5 cm**-1 <S**2> =   0.000000 Mult 1
   220a -> 246a  :     0.011157 
   235a -> 246a  :     0.816309 
   238a -> 246a  :     0.010882 
   239a -> 246a  :     0.018017 
   240a -> 246a  :     0.030885 
   244a -> 248a  :     0.023145 

STATE 14:  E=   0.164168 au      4.467 eV    36030.7 cm**-1 <S**2> =   0.000000 Mult 1
   235a -> 246a  :     0.024915 
   237a -> 246a  :     0.010402 
   244a -> 248a  :     0.873641 
   245a -> 249a  :     0.015695 

STATE 15:  E=   0.169828 au      4.621 eV    37273.0 cm**-1 <S**2> =   0.000000 Mult 1
   237a -> 246a  :     0.807956 
   238a -> 246a  :     0.114107 
   244a -> 248a  :     0.016293 
   245a -> 248a  :     0.010935 

STATE 16:  E=   0.173423 au      4.719 eV    38062.0 cm**-1 <S**2> =   0.000000 Mult 1
   242a -> 246a  :     0.105537 
   243a -> 246a  :     0.882346 

STATE 17:  E=   0.178446 au      4.856 eV    39164.4 cm**-1 <S**2> =   0.000000 Mult 1
   245a -> 251a  :     0.215358 
   245a -> 252a  :     0.192593 
   245a -> 253a  :     0.555642 

STATE 18:  E=   0.182224 au      4.959 eV    39993.5 cm**-1 <S**2> =   0.000000 Mult 1
   229a -> 246a  :     0.031249 
   232a -> 246a  :     0.076681 
   233a -> 246a  :     0.044112 
   240a -> 248a  :     0.015074 
   244a -> 249a  :     0.692071 
   244a -> 250a  :     0.023430 

STATE 19:  E=   0.182847 au      4.976 eV    40130.3 cm**-1 <S**2> =   0.000000 Mult 1
   217a -> 246a  :     0.017295 
   222a -> 246a  :     0.018105 
   229a -> 246a  :     0.087182 
   232a -> 246a  :     0.342583 
   233a -> 246a  :     0.178926 
   239a -> 246a  :     0.014466 
   244a -> 249a  :     0.192744 

STATE 20:  E=   0.184685 au      5.026 eV    40533.7 cm**-1 <S**2> =   0.000000 Mult 1
   244a -> 250a  :     0.918856 

STATE 21:  E=   0.188248 au      5.122 eV    41315.7 cm**-1 <S**2> =   0.000000 Mult 1
   220a -> 246a  :     0.075776 
   222a -> 246a  :     0.060182 
   235a -> 246a  :     0.015011 
   237a -> 246a  :     0.060670 
   237a -> 249a  :     0.015908 
   238a -> 246a  :     0.328399 
   238a -> 247a  :     0.064107 
   238a -> 248a  :     0.046864 
   238a -> 249a  :     0.146698 
   238a -> 261a  :     0.021264 
   239a -> 246a  :     0.015952 
   244a -> 249a  :     0.013668 

STATE 22:  E=   0.191142 au      5.201 eV    41950.8 cm**-1 <S**2> =   0.000000 Mult 1
   245a -> 251a  :     0.173598 
   245a -> 252a  :     0.376076 
   245a -> 253a  :     0.378405 

STATE 23:  E=   0.194182 au      5.284 eV    42618.1 cm**-1 <S**2> =   0.000000 Mult 1
   216a -> 246a  :     0.011355 
   220a -> 246a  :     0.180098 
   221a -> 246a  :     0.017218 
   222a -> 246a  :     0.167136 
   235a -> 246a  :     0.010752 
   237a -> 246a  :     0.013605 
   238a -> 246a  :     0.066301 
   238a -> 247a  :     0.016956 
   238a -> 248a  :     0.010859 
   238a -> 249a  :     0.030905 
   239a -> 246a  :     0.169904 
   239a -> 248a  :     0.111502 
   239a -> 249a  :     0.060765 

STATE 24:  E=   0.196117 au      5.337 eV    43042.7 cm**-1 <S**2> =   0.000000 Mult 1
   241a -> 247a  :     0.010221 
   244a -> 253a  :     0.021573 
   245a -> 254a  :     0.222057 
   245a -> 255a  :     0.512388 
   245a -> 256a  :     0.135079 

STATE 25:  E=   0.199642 au      5.433 eV    43816.4 cm**-1 <S**2> =   0.000000 Mult 1
   217a -> 246a  :     0.012974 
   220a -> 246a  :     0.211434 
   221a -> 246a  :     0.018177 
   222a -> 246a  :     0.114601 
   224a -> 246a  :     0.058990 
   232a -> 246a  :     0.013481 
   235a -> 246a  :     0.016126 
   238a -> 246a  :     0.011313 
   239a -> 246a  :     0.209709 
   239a -> 248a  :     0.137524 
   239a -> 249a  :     0.066791 

STATE 26:  E=   0.200442 au      5.454 eV    43991.9 cm**-1 <S**2> =   0.000000 Mult 1
   242a -> 247a  :     0.056527 
   244a -> 251a  :     0.178184 
   244a -> 252a  :     0.158372 
   244a -> 253a  :     0.522651 

STATE 27:  E=   0.201871 au      5.493 eV    44305.5 cm**-1 <S**2> =   0.000000 Mult 1
   224a -> 246a  :     0.041008 
   229a -> 246a  :     0.351722 
   231a -> 246a  :     0.141484 
   232a -> 246a  :     0.087697 
   237a -> 248a  :     0.015831 
   240a -> 247a  :     0.014965 
   240a -> 248a  :     0.011014 
   241a -> 247a  :     0.029318 
   241a -> 249a  :     0.052359 
   242a -> 247a  :     0.077562 
   242a -> 248a  :     0.049260 

STATE 28:  E=   0.203527 au      5.538 eV    44669.0 cm**-1 <S**2> =   0.000000 Mult 1
   224a -> 246a  :     0.010734 
   229a -> 246a  :     0.091309 
   231a -> 246a  :     0.037262 
   232a -> 246a  :     0.023470 
   240a -> 247a  :     0.042043 
   240a -> 248a  :     0.012441 
   240a -> 249a  :     0.022115 
   241a -> 247a  :     0.097552 
   241a -> 248a  :     0.016257 
   241a -> 249a  :     0.022373 
   242a -> 247a  :     0.412965 
   242a -> 249a  :     0.011542 
   243a -> 247a  :     0.047861 
   244a -> 253a  :     0.029135 
   245a -> 254a  :     0.017036 
   245a -> 255a  :     0.015657 

STATE 29:  E=   0.207406 au      5.644 eV    45520.4 cm**-1 <S**2> =   0.000000 Mult 1
   240a -> 247a  :     0.093417 
   240a -> 249a  :     0.041669 
   241a -> 247a  :     0.244177 
   241a -> 248a  :     0.128291 
   242a -> 247a  :     0.154546 
   242a -> 249a  :     0.114713 
   243a -> 247a  :     0.019351 
   243a -> 249a  :     0.010817 
   244a -> 253a  :     0.012462 
   244a -> 255a  :     0.022945 
   245a -> 254a  :     0.021736 
   245a -> 255a  :     0.036332 

STATE 30:  E=   0.208249 au      5.667 eV    45705.4 cm**-1 <S**2> =   0.000000 Mult 1
   224a -> 246a  :     0.029298 
   229a -> 246a  :     0.038729 
   231a -> 246a  :     0.021260 
   232a -> 246a  :     0.015629 
   240a -> 248a  :     0.026430 
   241a -> 247a  :     0.115118 
   241a -> 248a  :     0.202950 
   241a -> 249a  :     0.065101 
   242a -> 247a  :     0.069276 
   242a -> 248a  :     0.233750 
   242a -> 249a  :     0.019254 
   243a -> 248a  :     0.020667 


-----------------------------
 TD-DFT-EXCITATION SPECTRA
-----------------------------

Center of mass = ( 74.6342, 99.1885, 41.9481)
Generating RPA transition densities
 done

----------------------------------------------------------------------------------------------------
                     ABSORPTION SPECTRUM VIA TRANSITION ELECTRIC DIPOLE MOMENTS    
----------------------------------------------------------------------------------------------------
     Transition      Energy     Energy  Wavelength fosc(D2)      D2        DX        DY        DZ   
                      (eV)      (cm-1)    (nm)                 (au**2)    (au)      (au)      (au)  
----------------------------------------------------------------------------------------------------
  0-1A  ->  1-1A    1.619820   13064.7   765.4   0.563993616  14.21181  -3.32129  -1.58261   0.82229
  0-1A  ->  2-1A    2.299487   18546.6   539.2   0.214535606   3.80812   1.16164  -1.49652   0.46812
  0-1A  ->  3-1A    3.438491   27733.3   360.6   0.819142620   9.72374  -1.82344   2.42523  -0.71906
  0-1A  ->  4-1A    3.590010   28955.4   345.4   0.047925717   0.54490   0.52321  -0.49997   0.14551
  0-1A  ->  5-1A    3.768848   30397.8   329.0   0.012281652   0.13301   0.13500   0.33534  -0.04832
  0-1A  ->  6-1A    3.811921   30745.2   325.3   0.151812242   1.62557  -1.24373  -0.27888   0.03031
  0-1A  ->  7-1A    3.831416   30902.5   323.6   0.076697911   0.81708   0.83812  -0.33464   0.05146
  0-1A  ->  8-1A    3.842267   30990.0   322.7   0.102806152   1.09213   0.50035  -0.87880   0.26361
  0-1A  ->  9-1A    3.977705   32082.4   311.7   0.953145302   9.78067  -2.74217  -1.36320   0.63472
  0-1A  -> 10-1A    4.223102   34061.6   293.6   0.008939437   0.08640   0.16352   0.22192  -0.10205
  0-1A  -> 11-1A    4.332757   34946.0   286.2   0.128599598   1.21148  -0.50159   0.90792  -0.36819
  0-1A  -> 12-1A    4.362429   35185.4   284.2   0.029032551   0.27164   0.29611  -0.40610   0.13802
  0-1A  -> 13-1A    4.426667   35703.5   280.1   0.008129699   0.07496   0.01009  -0.26074   0.08292
  0-1A  -> 14-1A    4.467242   36030.7   277.5   0.063426903   0.57953   0.11338   0.71174  -0.24516
  0-1A  -> 15-1A    4.621256   37273.0   268.3   0.006461980   0.05708   0.15513   0.15138  -0.10047
  0-1A  -> 16-1A    4.719085   38062.0   262.7   0.000294455   0.00255  -0.04049  -0.02917   0.00754
  0-1A  -> 17-1A    4.855761   39164.4   255.3   0.000863993   0.00726   0.02451   0.07809  -0.02375
  0-1A  -> 18-1A    4.958555   39993.5   250.0   0.139093556   1.14497   0.77787  -0.71792   0.15644
  0-1A  -> 19-1A    4.975518   40130.3   249.2   0.057762378   0.47386   0.60207  -0.32535   0.07430
  0-1A  -> 20-1A    5.025538   40533.7   246.7   0.006608827   0.05368  -0.16464   0.10737  -0.12265
  0-1A  -> 21-1A    5.122495   41315.7   242.0   0.003855295   0.03072  -0.09503   0.12247  -0.08179
  0-1A  -> 22-1A    5.201232   41950.8   238.4   0.008230015   0.06459   0.21642   0.13188  -0.01884
  0-1A  -> 23-1A    5.283965   42618.1   234.6   0.000034537   0.00027  -0.00014  -0.00899  -0.01364
  0-1A  -> 24-1A    5.336614   43042.7   232.3   0.002036886   0.01558   0.09356   0.08009   0.02028
  0-1A  -> 25-1A    5.432538   43816.4   228.2   0.002475868   0.01860   0.08481  -0.07831   0.07264
  0-1A  -> 26-1A    5.454295   43991.9   227.3   0.000538478   0.00403   0.01735  -0.05298   0.03037
  0-1A  -> 27-1A    5.493184   44305.5   225.7   0.247811323   1.84136   1.22572  -0.51907   0.26370
  0-1A  -> 28-1A    5.538247   44669.0   223.9   0.067055387   0.49420   0.66797  -0.21354   0.04917
  0-1A  -> 29-1A    5.643804   45520.4   219.7   0.054636995   0.39515   0.48996   0.32254  -0.22594
  0-1A  -> 30-1A    5.666744   45705.4   218.8   0.328466686   2.36592   1.31104  -0.78076   0.19367

----------------------------------------------------------------------------------------------------
                     ABSORPTION SPECTRUM VIA TRANSITION VELOCITY DIPOLE MOMENTS    
----------------------------------------------------------------------------------------------------
     Transition      Energy     Energy  Wavelength fosc(P2)      P2        PX        PY        PZ   
                      (eV)      (cm-1)    (nm)                 (au**2)    (au)      (au)      (au)  
----------------------------------------------------------------------------------------------------
  0-1A  ->  1-1A    1.619820   13064.7   765.4   0.606862645   0.05419   0.20507   0.09760  -0.05107
  0-1A  ->  2-1A    2.299487   18546.6   539.2   0.231327579   0.02932  -0.10183   0.13140  -0.04108
  0-1A  ->  3-1A    3.438491   27733.3   360.6   0.884988163   0.16774   0.23938  -0.31869   0.09421
  0-1A  ->  4-1A    3.590010   28955.4   345.4   0.051662411   0.01022  -0.07182   0.06827  -0.02010
  0-1A  ->  5-1A    3.768848   30397.8   329.0   0.012625800   0.00262  -0.01878  -0.04698   0.00797
  0-1A  ->  6-1A    3.811921   30745.2   325.3   0.162653139   0.03418   0.18019   0.04112  -0.00450
  0-1A  ->  7-1A    3.831416   30902.5   323.6   0.082122835   0.01734  -0.12197   0.04899  -0.00829
  0-1A  ->  8-1A    3.842267   30990.0   322.7   0.111229557   0.02356  -0.07301   0.12944  -0.03840
  0-1A  ->  9-1A    3.977705   32082.4   311.7   1.029902087   0.22582   0.41637   0.20755  -0.09689
  0-1A  -> 10-1A    4.223102   34061.6   293.6   0.009572219   0.00223  -0.02625  -0.03562   0.01646
  0-1A  -> 11-1A    4.332757   34946.0   286.2   0.137349849   0.03280   0.08277  -0.14918   0.06082
  0-1A  -> 12-1A    4.362429   35185.4   284.2   0.030353886   0.00730  -0.04877   0.06643  -0.02253
  0-1A  -> 13-1A    4.426667   35703.5   280.1   0.008744415   0.00213  -0.00159   0.04395  -0.01414
  0-1A  -> 14-1A    4.467242   36030.7   277.5   0.068646415   0.01690  -0.02003  -0.12153   0.04162
  0-1A  -> 15-1A    4.621256   37273.0   268.3   0.007043794   0.00179  -0.02739  -0.02686   0.01796
  0-1A  -> 16-1A    4.719085   38062.0   262.7   0.000313936   0.00008   0.00729   0.00516  -0.00140
  0-1A  -> 17-1A    4.855761   39164.4   255.3   0.000882132   0.00024  -0.00406  -0.01425   0.00409
  0-1A  -> 18-1A    4.958555   39993.5   250.0   0.151544372   0.04142  -0.14782   0.13687  -0.02897
  0-1A  -> 19-1A    4.975518   40130.3   249.2   0.062950669   0.01727  -0.11505   0.06139  -0.01616
  0-1A  -> 20-1A    5.025538   40533.7   246.7   0.007307326   0.00202   0.03229  -0.02049   0.02370
  0-1A  -> 21-1A    5.122495   41315.7   242.0   0.004219480   0.00119   0.01851  -0.02456   0.01567
  0-1A  -> 22-1A    5.201232   41950.8   238.4   0.009065198   0.00260  -0.04315  -0.02693   0.00341
  0-1A  -> 23-1A    5.283965   42618.1   234.6   0.000030559   0.00001   0.00050   0.00183   0.00230
  0-1A  -> 24-1A    5.336614   43042.7   232.3   0.002047029   0.00060  -0.01835  -0.01574  -0.00422
  0-1A  -> 25-1A    5.432538   43816.4   228.2   0.002682624   0.00080  -0.01772   0.01648  -0.01475
  0-1A  -> 26-1A    5.454295   43991.9   227.3   0.000554591   0.00017  -0.00351   0.01086  -0.00603
  0-1A  -> 27-1A    5.493184   44305.5   225.7   0.265036973   0.08025  -0.25538   0.10931  -0.05557
  0-1A  -> 28-1A    5.538247   44669.0   223.9   0.070925712   0.02165  -0.13973   0.04487  -0.01076
  0-1A  -> 29-1A    5.643804   45520.4   219.7   0.059155881   0.01840  -0.10508  -0.07060   0.04876
  0-1A  -> 30-1A    5.666744   45705.4   218.8   0.349677339   0.10923  -0.28045   0.16976  -0.04191

------------------------------------------------------------------------------------------
                     CD SPECTRUM VIA TRANSITION ELECTRIC DIPOLE MOMENTS    
------------------------------------------------------------------------------------------
     Transition      Energy     Energy  Wavelength    R        MX        MY        MZ   
                      (eV)      (cm-1)    (nm)   (1e40*cgs)   (au)      (au)      (au)  
------------------------------------------------------------------------------------------
  0-1A  ->  1-1A    1.619820   13064.7   765.4   13.75145   0.20698   0.14353   1.07675
  0-1A  ->  2-1A    2.299487   18546.6   539.2    4.98452   0.15907   0.16436   0.10813
  0-1A  ->  3-1A    3.438491   27733.3   360.6   24.01314  -0.34740  -0.10424   0.60021
  0-1A  ->  4-1A    3.590010   28955.4   345.4   -0.54679   0.09254   0.16102   0.22848
  0-1A  ->  5-1A    3.768848   30397.8   329.0  -33.27894  -0.22977   0.22880  -0.51489
  0-1A  ->  6-1A    3.811921   30745.2   325.3  131.29690   0.17277   0.35019   1.12338
  0-1A  ->  7-1A    3.831416   30902.5   323.6  -146.47800   0.41154   0.03170  -0.45897
  0-1A  ->  8-1A    3.842267   30990.0   322.7   62.78990  -0.03359   0.16498   0.10851
  0-1A  ->  9-1A    3.977705   32082.4   311.7   -2.98814   0.38626   0.25207   2.22011
  0-1A  -> 10-1A    4.223102   34061.6   293.6   -6.08851  -0.11406  -0.33618  -1.04042
  0-1A  -> 11-1A    4.332757   34946.0   286.2   -3.37208  -0.27173  -0.19016  -0.11817
  0-1A  -> 12-1A    4.362429   35185.4   284.2    1.31977   0.08623   0.04861  -0.06226
  0-1A  -> 13-1A    4.426667   35703.5   280.1   -9.49302  -0.21012  -0.02001   0.20547
  0-1A  -> 14-1A    4.467242   36030.7   277.5   16.01106  -0.17838   0.12331   0.41401
  0-1A  -> 15-1A    4.621256   37273.0   268.3    4.02037  -0.07411   0.13714   0.17707
  0-1A  -> 16-1A    4.719085   38062.0   262.7   -0.10566  -0.00415   0.01504   0.06563
  0-1A  -> 17-1A    4.855761   39164.4   255.3   -1.70496   0.01177   0.26290   0.72414
  0-1A  -> 18-1A    4.958555   39993.5   250.0    4.71510   0.12347   0.09540  -0.24003
  0-1A  -> 19-1A    4.975518   40130.3   249.2    0.82373   0.04294   0.00240  -0.36103
  0-1A  -> 20-1A    5.025538   40533.7   246.7   -6.33194  -0.12885   0.01704   0.07837
  0-1A  -> 21-1A    5.122495   41315.7   242.0   23.23862   0.09862  -0.22987   0.14388
  0-1A  -> 22-1A    5.201232   41950.8   238.4   -8.80730   0.04729   0.03747  -0.18603
  0-1A  -> 23-1A    5.283965   42618.1   234.6    0.61765   0.16134   0.21415  -0.04680
  0-1A  -> 24-1A    5.336614   43042.7   232.3   -5.06983  -0.03651   0.10093   0.30010
  0-1A  -> 25-1A    5.432538   43816.4   228.2    9.35879  -0.20115  -0.00522  -0.04406
  0-1A  -> 26-1A    5.454295   43991.9   227.3   -0.36623   0.06716   0.05744   0.08741
  0-1A  -> 27-1A    5.493184   44305.5   225.7   24.45256   0.17413   0.05585  -0.89617
  0-1A  -> 28-1A    5.538247   44669.0   223.9    3.41052   0.04679   0.18196   0.00745
  0-1A  -> 29-1A    5.643804   45520.4   219.7   14.99920  -0.16413   0.27105   0.17182
  0-1A  -> 30-1A    5.666744   45705.4   218.8   20.53191   0.06431  -0.16407  -1.32165

------------------------------------------------------------------------------------------
                     CD SPECTRUM VIA TRANSITION VELOCITY DIPOLE MOMENTS    
------------------------------------------------------------------------------------------
     Transition      Energy     Energy  Wavelength    R        MX        MY        MZ   
                      (eV)      (cm-1)    (nm)   (1e40*cgs)   (au)      (au)      (au)  
------------------------------------------------------------------------------------------
  0-1A  ->  1-1A    1.619820   13064.7   765.4   11.60629   0.20698   0.14353   1.07675
  0-1A  ->  2-1A    2.299487   18546.6   539.2    5.34890   0.15907   0.16436   0.10813
  0-1A  ->  3-1A    3.438491   27733.3   360.6   24.65613  -0.34740  -0.10424   0.60021
  0-1A  ->  4-1A    3.590010   28955.4   345.4   -0.87694   0.09254   0.16102   0.22848
  0-1A  ->  5-1A    3.768848   30397.8   329.0  -35.86443  -0.22977   0.22880  -0.51489
  0-1A  ->  6-1A    3.811921   30745.2   325.3  136.21499   0.17277   0.35019   1.12338
  0-1A  ->  7-1A    3.831416   30902.5   323.6  -150.13195   0.41154   0.03170  -0.45897
  0-1A  ->  8-1A    3.842267   30990.0   322.7   65.57342  -0.03359   0.16498   0.10851
  0-1A  ->  9-1A    3.977705   32082.4   311.7   -6.31521   0.38626   0.25207   2.22011
  0-1A  -> 10-1A    4.223102   34061.6   293.6   -6.56005  -0.11406  -0.33618  -1.04042
  0-1A  -> 11-1A    4.332757   34946.0   286.2   -3.87715  -0.27173  -0.19016  -0.11817
  0-1A  -> 12-1A    4.362429   35185.4   284.2    1.25462   0.08623   0.04861  -0.06226
  0-1A  -> 13-1A    4.426667   35703.5   280.1   -9.99970  -0.21012  -0.02001   0.20547
  0-1A  -> 14-1A    4.467242   36030.7   277.5   16.71197  -0.17838   0.12331   0.41401
  0-1A  -> 15-1A    4.621256   37273.0   268.3    4.23733  -0.07411   0.13714   0.17707
  0-1A  -> 16-1A    4.719085   38062.0   262.7   -0.12040  -0.00415   0.01504   0.06563
  0-1A  -> 17-1A    4.855761   39164.4   255.3   -2.19608   0.01177   0.26290   0.72414
  0-1A  -> 18-1A    4.958555   39993.5   250.0    4.55212   0.12347   0.09540  -0.24003
  0-1A  -> 19-1A    4.975518   40130.3   249.2    2.68539   0.04294   0.00240  -0.36103
  0-1A  -> 20-1A    5.025538   40533.7   246.7   -6.77217  -0.12885   0.01704   0.07837
  0-1A  -> 21-1A    5.122495   41315.7   242.0   24.35808   0.09862  -0.22987   0.14388
  0-1A  -> 22-1A    5.201232   41950.8   238.4   -9.08610   0.04729   0.03747  -0.18603
  0-1A  -> 23-1A    5.283965   42618.1   234.6    0.88815   0.16134   0.21415  -0.04680
  0-1A  -> 24-1A    5.336614   43042.7   232.3   -5.25382  -0.03651   0.10093   0.30010
  0-1A  -> 25-1A    5.432538   43816.4   228.2    9.74838  -0.20115  -0.00522  -0.04406
  0-1A  -> 26-1A    5.454295   43991.9   227.3   -0.32749   0.06716   0.05744   0.08741
  0-1A  -> 27-1A    5.493184   44305.5   225.7   26.71256   0.17413   0.05585  -0.89617
  0-1A  -> 28-1A    5.538247   44669.0   223.9    3.57965   0.04679   0.18196   0.00745
  0-1A  -> 29-1A    5.643804   45520.4   219.7   14.74886  -0.16413   0.27105   0.17182
  0-1A  -> 30-1A    5.666744   45705.4   218.8   21.51403   0.06431  -0.16407  -1.32165

Total run time:    45475.592 sec

           *** ORCA-CIS/TD-DFT FINISHED WITHOUT ERROR ***
-----------------------
CIS/TD-DFT TOTAL ENERGY
-----------------------

    E(SCF)  =  -3010.915132538 Eh
    DE(CIS) =      0.059527286 Eh (Root  1)
    ----------------------------- ---------
    E(tot)  =  -3010.855605252 Eh


Maximum memory used throughout the entire CIS-calculation: 1824.6 MB
=> NOW LEAVING ORCA_CIS

-------------------------   --------------------
FINAL SINGLE POINT ENERGY     -3010.855605251940
-------------------------   --------------------



           ************************************************************
           *        Program running with 4 parallel MPI-processes     *
           *              working on a common directory               *
           ************************************************************

------------------------------------------------------------------------------
                              ORCA PROPERTY CALCULATIONS
------------------------------------------------------------------------------

GBWName                                 ... tddft.gbw
Number of atoms                         ...    140
Number of basis functions               ...   2491
Max core memory                         ...   2200 MB

Electric properties:
Dipole moment                           ... YES
Quadrupole moment                       ...  NO
Static polarizability (Dipole/Dipole)   ...  NO
Static polarizability (Dipole/Quad.)    ...  NO
Static polarizability (Quad./Quad.)     ...  NO
Static polarizability (Velocity)        ...  NO
Static hyperpolarizability              ...  NO

Atomic electric properties:
Dipole moment                           ...  NO
Quadrupole moment                       ...  NO
Static polarizability                   ...  NO

Choice of electric origin               ... Center of mass
Position of electric origin             ...    74.634185    99.188498    41.948136

General magnetic properties:
Magnetizability                         ...  NO

EPR properties:
g-Tensor (aka g-matrix)                 ...  NO
Zero-Field splitting spin-orbit         ...  NO
Zero-field splitting spin-spin          ...  NO
Hyperfine couplings                     ...  NO (   0 nuclei)
Quadrupole couplings                    ...  NO (   0 nuclei)
Contact density                         ...  NO (   0 nuclei)

NMR properties:
Chemical shifts                         ...  NO (   0 nuclei)
Spin-rotation constants                 ...  NO (   0 nuclei)
Spin-spin couplings                     ...  NO (   0 nuclei,    0 pairs)

Choice of magnetic origin               ... GIAO
Position of magnetic origin             ...     0.000000     0.000000     0.000000

Properties with geometric perturbations:
SCF Hessian                             ...  NO
IR spectrum                             ...  NO
VCD spectrum                            ...  NO
X-ray spectroscopy properties:
SCF XES/XAS/RIXS spectra                ...  NO

SCF SOC stabilization energy            ...  NO
Diagonal Born-Oppenheimer correction    ...  NO

-------------
DIPOLE MOMENT
-------------

Method             : SCF
Type of density    : Electron Density
Multiplicity       :   1
Irrep              :   0
Energy             : -3010.9151325378716137 Eh
Basis              : AO
                                X                 Y                 Z
Electronic contribution:     58.457653461    -190.827825216      33.692428618
Nuclear contribution   :    -55.918878543     192.827421473     -34.236029130
                        -----------------------------------------
Total Dipole Moment    :      2.538774918       1.999596257      -0.543600513
                        -----------------------------------------
Magnitude (a.u.)       :      3.277081749
Magnitude (Debye)      :      8.329679835



--------------------
Rotational spectrum 
--------------------
 
Rotational constants in cm-1:             0.001477             0.000339             0.000316 
Rotational constants in MHz :            44.283578            10.162134             9.458462 

Dipole components along the rotational axes: 
x,y,z [a.u.] :    -0.720885     3.076610     0.868367 
x,y,z [Debye]:    -1.832343     7.820121     2.207212 

 

Dipole moment calculation done in   0.2 sec 

Maximum memory used throughout the entire PROP-calculation: 430.9 MB

--------------------------------
SUGGESTED CITATIONS FOR THIS RUN
--------------------------------

Below you find a list of papers that are relevant to this ORCA run
We neither can nor want to force you to cite these papers, but we appreciate if you do
You receive ORCA, which is the product of decades of hard work by many enthusiastic individuals, for free
The only thing we kindly ask in return is that you cite our papers,
We deeply appreciate it, if you show your appreciation for ORCA by not just citing the generic ORCA reference.

Please note that relegating all ORCA citations to the supporting information does *not* help us.
SI sections are not indexed - citations you put there will not count into any citation statistics
But we need these citations in order to attract the funding resources that allow us to do what we are doing

Therefore, if you are a happy ORCA user, please consider citing a few of the papers listed below in the main body of your paper

In addition to the list printed below, the program has created the file tddft.bibtex that contains the list in bibtex format
You can import this file easily into all common literature databanks and citation aid programs

It goes without saying that in many instances, there are alternative algorithms to achieve similar
results as the ones you have gotten from ORCA. It is, of course, also the case that in some instances
ORCA just re-implements algorithms worked out by others. We are fully aware of that and we are also
fully appreciative of our colleagues work. Hence this citation list should not be read as indicating
that the listed papers, which are focused on our own work, are the only ones worth citing. It simply
meant to make it easier for users to cite ORCA specific papers. It is not a substitute for doing your
own literature research and citing the relevant literature in a scientifically appropriate manner.

List of essential papers. We consider these as the minimum necessary citations

  1. Neese, F.
     Software update: the ORCA program system, version 6.0
     WIRES Comput. Molec. Sci. 2025 15(1), e70019
     doi.org/10.1002/wcms.70019

List of papers to cite with high priority. The work reported in these papers was absolutely
necessary for this run to complete.
Our perspective: the developers of density functionals and basis sets usually get cited in chemistry papers
Good! But without the algorithms to do something with them, the functionals or basis sets would not do anything.
Hence, in our opinion, the algorithm design and method developments papers are equally worthy of getting cited

  1. Neese, F.; Olbrich, G.
     Efficient use of the resolution of the identity approximation in time-dependent density functional calculations with hybrid density functionals
     Chem. Phys. Lett. 2002 362 , 170-178
     doi.org/10.1016/s0009-2614(02)01053-9
  2. Neese, F.
     An improvement of the resolution of the identity approximation for the formation of the Coulomb matrix
     J. Comp. Chem. 2003 24(14), 1740-1747
     doi.org/10.1002/jcc.10318
  3. Neese, F.; Wennmohs, F.; Hansen, A.; Becker, U.
     Efficient, approximate and parallel Hartree-Fock and hybrid DFT calculations. A 'chain-of-spheres' algorithm for the Hartree-Fock exchange
     Chem. Phys. 2009 356(1-3), 98-109
     doi.org/10.1016/j.chemphys.2008.10.036
  4. Garcia-Rates, M.; Neese, F.
     Effect of the Solute Cavity on the Solvation Energy and its Derivatives within the Framework of the Gaussian Charge Scheme
     J. Comput. Chem. 2020 41 , 922-939
     doi.org/10.1002/jcc.26139
  5. Helmich-Paris, B.; de Souza, B.; Neese, F.; Izsák, R.
     An improved chain of spheres for exchange algorithm
     J. Chem. Phys. 2021 155(10), 104109
     doi.org/10.1063/5.0058766
  6. Neese, F.
     The SHARK Integral Generation and Digestion System
     J. Comp. Chem. 2022 44(3), 381
     doi.org/10.1002/jcc.26942

List of suggested additional citations. These are papers that are important in the 'surrounding' of 
of this run, or papers that preceded the highly important papers. If you like your results we are grateful for a citation.

  1. Izsak, R.; Neese, F.
     An overlap fitted chain of spheres exchange method
     J. Chem. Phys. 2011 135 , 144105
     doi.org/10.1063/1.3646921
  2. Izsak, R.; Hansen, A.; Neese, F.
     The resolution of identity and chain of spheres approximations for the LPNO-CCSD singles Fock term
     Molec. Phys. 2012 110 , 2413-2417
     doi.org/10.1080/00268976.2012.687466
  3. Neese, F.
     The ORCA program system
     WIRES Comput. Molec. Sci. 2012 2(1), 73-78
     doi.org/10.1002/wcms.81
  4. Izsak, R.; Neese, F.; Klopper, W.
     Robust fitting techniques in the chain of spheres approximation to the Fock exchange: The role of the complementary space
     J. Chem. Phys. 2013 139 , 
     doi.org/10.1063/1.4819264
  5. Neese, F.
     Software update: the ORCA program system, version 4.0
     WIRES Comput. Molec. Sci. 2018 8(1), 1-6
     doi.org/10.1002/wcms.1327
  6. Neese, F.; Wennmohs, F.; Becker, U.; Riplinger, C.
     The ORCA quantum chemistry program package
     J. Chem. Phys. 2020 152(22), 224108
     doi.org/10.1063/5.0004608
  7. Neese, F.
     Software update: The ORCA program system—Version 5.0
     WIRES Comput. Molec. Sci. 2022 12(1), e1606
     doi.org/10.1002/wcms.1606

List of optional additional citations

  1. Neese, F.
     Approximate second-order SCF convergence for spin unrestricted wavefunctions
     Chem. Phys. Lett. 2000 325(1-3), 93-98
     doi.org/10.1016/s0009-2614(00)00662-x

Timings for individual modules:

Sum of individual times          ...    52495.076 sec (= 874.918 min)
Startup calculation              ...       84.053 sec (=   1.401 min)   0.2 %
SCF iterations                   ...     6928.747 sec (= 115.479 min)  13.2 %
Property integrals               ...        4.416 sec (=   0.074 min)   0.0 %
Property calculations            ...        1.650 sec (=   0.028 min)   0.0 %
CIS module                       ...    45476.210 sec (= 757.937 min)  86.6 %
                             ****ORCA TERMINATED NORMALLY****
TOTAL RUN TIME: 0 days 14 hours 34 minutes 55 seconds 624 msec
