140
Coordinates from ORCA-job bacteriochlorophyll_a_opt_extended_b3lypd4_tzvp E -3010.613591580841
  Mg         41.65418507584849     48.09501394285308     22.38211451345143
  C          38.39587798220634     49.19611895050878     22.22709857932618
  C          42.67974995421612     51.09441593566003     21.17617553192036
  C          44.84174718345237     46.99454083339356     22.60858563254029
  C          40.52583906126418     45.03723282389031     23.58315655006798
  N          40.65025757563382     49.89207534322637     21.79074382559924
  C          39.30910375383510     50.14219521062500     21.82434642282845
  C          39.00190610180607     51.56450709967844     21.41454902379609
  C          40.34059887051392     52.01955260233905     20.79699946346980
  C          41.30940955282687     50.96047219322412     21.28910134192053
  C          40.29573780382283     52.05805290874522     19.26558733646685
  C          38.53439627505977     52.42559698956575     22.60001979993243
  C          39.48689040748788     52.41139215844581     23.79192861838276
  C          38.93118723466490     53.16450207974182     24.97754292861184
  O          37.75755379983436     53.31719095839932     25.21002489481161
  O          39.91606956612684     53.62675791415662     25.76567844906313
  N          43.45681040557420     48.91521355328731     21.99216573713029
  C          43.68445028967124     50.17474168534093     21.50561489909418
  C          45.09600109170378     50.39466078747278     21.35813971153546
  C          45.72103004909837     49.22592240511718     21.77240252291643
  C          44.66810834018476     48.31134510867836     22.16734322995195
  C          45.69706472297015     51.67540345150164     20.87613868800646
  C          47.16130195394830     48.91362264610101     21.81902772017506
  O          47.59577462810405     47.96858766363973     22.45843938519329
  C          48.13476140665453     49.77269189338558     21.03642748743037
  N          42.54107163516704     46.28761231366873     22.99726156284167
  C          43.87506772421902     46.07579108290206     22.97277809176187
  C          44.21319656406817     44.64976756123588     23.36020767174127
  C          42.88098097391671     44.13848548865399     23.94367135760359
  C          41.89283692658204     45.18884096841342     23.47223392161381
  C          44.68133691085028     43.84201592116638     22.14519243461384
  C          42.88350354054270     44.00110464083684     25.47811711510447
  C          43.15275808541949     45.30052473948705     26.23408804629451
  N          39.88593398906570     47.25256317413842     22.80489870509427
  C          39.54951187684280     45.99217886199554     23.26698368593170
  C          38.11886765965095     45.86264496410379     23.38080876222396
  C          37.61868392369337     47.09384869830328     22.97587920299890
  C          38.72639636384623     47.90303083769166     22.63881600218126
  C          37.36497450488665     44.65872327788743     23.83078064039771
  C          36.40136579627490     47.86217039142166     22.77367184084963
  O          35.24229853329639     47.55369118062339     22.91136227944690
  C          36.88442509027057     49.30757620663569     22.30479553906179
  C          36.21512665608643     49.65756014898770     20.99669878195726
  O          36.66344662966799     49.42092920456978     19.90226010169454
  O          35.02991518407795     50.24664238565600     21.21005377685793
  C          34.24147198041631     50.51207064838859     20.04030491056066
  C          39.49498584810025     54.36574257495437     26.95275198448905
  C          38.95047284605619     55.72042561822388     26.62704416991782
  C          39.67644764081822     56.77362962453210     26.24305716055756
  C          41.17112511773657     56.74534316746184     26.09228535507964
  C          38.99994254771909     58.07085164213297     25.88389715464193
  C          39.01038370593812     58.36660653703500     24.37682740896159
  C          38.27031811954909     59.65709341742274     24.03077166101859
  C          38.12426876360215     59.93777389469209     22.52856907534895
  C          39.48242413577632     60.15520297526673     21.85612811959545
  C          37.17871779067246     61.12583764527705     22.30273032400190
  C          36.76292766745699     61.35719140870061     20.85072036981447
  C          35.74412675588120     62.48637871092493     20.70257306120810
  C          35.20756058077472     62.69860005277978     19.27992712402997
  C          36.30833907303150     63.15975216029639     18.32139838025924
  C          34.02348598351894     63.67535129182352     19.30161610943030
  C          33.26313204369583     63.80637922448565     17.98269922362513
  C          32.02794971066714     64.69800328358610     18.10134750687739
  C          31.16405084948443     64.78887013593246     16.83667839759087
  C          31.91049859015105     65.43101823586633     15.66516435284003
  C          29.86859020321892     65.54915659852261     17.12763569658767
  H          43.01274076833300     52.03599326217716     20.76229316596701
  H          45.86729559678732     46.66685870218005     22.67853994674785
  H          40.17597879284548     44.08800664008923     23.96891993824598
  H          38.21214557541243     51.57588170535251     20.66146640505895
  H          40.63039510831315     53.00747896779609     21.16456322113213
  H          41.27139498540314     52.31133966681332     18.84734967379893
  H          39.99588025592588     51.08756010386075     18.86495856611051
  H          39.57385660053452     52.80315209877492     18.92382308888538
  H          38.40292963115062     53.45339452344781     22.24882580494736
  H          37.55096464955532     52.09489408666352     22.93427990492399
  H          39.65462348947901     51.38222490829303     24.12716726786051
  H          40.46863571216986     52.81668500685988     23.54574648857639
  H          46.49800530826926     52.01853264828207     21.53140058911312
  H          46.12177497625574     51.57431709355426     19.87422108008801
  H          44.95409049688305     52.46897909667290     20.83517692734121
  H          49.09141070978298     49.25590587524383     21.00337649912754
  H          47.78302981955828     49.97160830745300     20.02368591087383
  H          48.27711783976795     50.73629450925494     21.53017754187309
  H          45.00644052317902     44.63933140020698     24.11125946279485
  H          42.62605717309328     43.16312532256887     23.52142970593543
  H          44.89032828690444     42.80856604496738     22.43101222982911
  H          43.91307867898426     43.83166030037627     21.36840445917183
  H          45.58962845825790     44.26715050558884     21.71562451550018
  H          41.91745311349870     43.59453080628075     25.79157665783000
  H          43.63509510828528     43.25221759560183     25.74820726811827
  H          43.13764982865459     45.12690399318124     27.31137698589346
  H          44.12758115858326     45.72324669118814     25.98356972787269
  H          42.39448251881539     46.05284718791223     26.00875174108008
  H          36.30097668680891     44.87923817250584     23.89981101754912
  H          37.49220523454789     43.82589019170599     23.13288252223403
  H          37.70817205689006     44.31257791688514     24.80955270193107
  H          36.54034258881894     50.00890969099206     23.06760190058558
  H          33.32350682549220     50.96483864428779     20.40445262530325
  H          34.76744858934572     51.19283648535557     19.37107617132780
  H          34.02769716172609     49.58441138886936     19.51053033404688
  H          38.75228237670177     53.76864162921331     27.47933433840583
  H          40.40258619666469     54.41437298629346     27.55090677176557
  H          37.87259837728019     55.82053685829896     26.67619406602383
  H          41.62352141663856     57.59752182360130     26.60796935856139
  H          41.61936735047406     55.83059142581419     26.47509707855997
  H          41.45576882634472     56.82864354714667     25.03961659153235
  H          37.96465232807876     58.04684640130504     26.23284326766692
  H          39.49355707434840     58.89760048723031     26.40902073689889
  H          40.04225825888198     58.41971850858145     24.02229473175657
  H          38.54278400307071     57.52645513029355     23.85216690755948
  H          37.26929697214504     59.61277562928727     24.47348197576440
  H          38.77509194507163     60.50681546407299     24.50718918613590
  H          37.65710520254800     59.05372816880488     22.07378932451159
  H          39.38053987651411     60.31833746834869     20.78264592608037
  H          39.98341541630539     61.03105969151041     22.28035170484124
  H          40.14193888291803     59.29686359985536     21.99050046331544
  H          36.27559655105133     60.96899477342022     22.90275004324226
  H          37.64874855052835     62.03581838031481     22.69640986627810
  H          37.64471520259927     61.57252684068419     20.24375350118042
  H          36.33238165311752     60.43136747259911     20.44986728893088
  H          34.89687667962113     62.28018677263063     21.36591455210760
  H          36.18632729374694     63.42461560448987     21.06050331488230
  H          34.82928563959101     61.73098453574586     18.92279435993641
  H          35.93540880424501     63.27607727716231     17.30313580770891
  H          36.71344412716100     64.12518149291486     18.64072750673634
  H          37.13471663139790     62.44895292134984     18.28258698790551
  H          33.32102638946744     63.35047598091332     20.07715937677795
  H          34.38166429767070     64.66417420526837     19.61462401088725
  H          33.92680361032937     64.20001555252671     17.20989835034892
  H          32.95569229648996     62.80897638143660     17.64504732225575
  H          31.40443020862571     64.32516182713421     18.92179187845826
  H          32.33646732564217     65.71007458717989     18.39267730469596
  H          30.89520206453796     63.76530897727556     16.54540007675260
  H          31.26870569660650     65.49959248412513     14.78381049389544
  H          32.23046871589002     66.44571220680703     15.92190175078616
  H          32.79811283103263     64.86334803005407     15.38215566594881
  H          29.22369293045039     65.58867679941577     16.24670471064623
  H          29.30458603991177     65.07855828760754     17.93632889703281
  H          30.08298620218723     66.57930214849887     17.42773389647563
