
                                 *****************
                                 * O   R   C   A *
                                 *****************

                                            #,                                       
                                            ###                                      
                                            ####                                     
                                            #####                                    
                                            ######                                   
                                           ########,                                 
                                     ,,################,,,,,                         
                               ,,#################################,,                 
                          ,,##########################################,,             
                       ,#########################################, ''#####,          
                    ,#############################################,,   '####,        
                  ,##################################################,,,,####,       
                ,###########''''           ''''###############################       
              ,#####''   ,,,,##########,,,,          '''####'''          '####       
            ,##' ,,,,###########################,,,                        '##       
           ' ,,###''''                  '''############,,,                           
         ,,##''                                '''############,,,,        ,,,,,,###''
      ,#''                                            '''#######################'''  
     '                                                          ''''####''''         
             ,#######,   #######,   ,#######,      ##                                
            ,#'     '#,  ##    ##  ,#'     '#,    #''#        ,####,    ,#,          
            ##       ##  ##   ,#'  ##            #'  '#       #'       ,# #          
            ##       ##  #######   ##           ,######,      #####,      #          
            '#,     ,#'  ##    ##  '#,     ,#' ,#      #,     #,   #      #          
             '#######'   ##     ##  '#######'  #'      '#     '####' #    #          



                #########################################################
                #                        -***-                          #
                #          Department of theory and spectroscopy        #
                #                                                       #
                #                      Frank Neese                      #
                #                                                       #
                #     Directorship, Architecture, Infrastructure        #
                #                    SHARK, DRIVERS                     #
                #        Core code/Algorithms in most modules           #
                #                                                       #
                #        Max Planck Institute fuer Kohlenforschung      #
                #                Kaiser Wilhelm Platz 1                 #
                #                 D-45470 Muelheim/Ruhr                 #
                #                      Germany                          #
                #                                                       #
                #                  All rights reserved                  #
                #                        -***-                          #
                #########################################################


                         Program Version 6.1.1  -  RELEASE   -
                                (GIT: $487d211c$)
                          ($2025-11-21 10:33:24 +0100$)


 With contributions from (in alphabetic order):
[Max-Planck-Institut fuer Kohlenforschung]                               
  Daniel Aravena         : Magnetic Suceptibility                        
  Michael Atanasov       : Ab Initio Ligand Field Theory (pilot matlab implementation)
  Alexander A. Auer      : GIAO ZORA, VPT2 properties, NMR spectrum      
  Ute Becker             : All parallelization in ORCA, NUMFREQ, NUMCALC 
  Giovanni Bistoni       : ED, misc. LED, open-shell LED, HFLD           
  Dmytro Bykov           : pre 5.0 version of the SCF Hessian            
  Marcos Casanova-Páez   : Triplet and SCS-CIS(D). UHF-(DLPNO)-IP/EA/STEOM-CCSD. UHF-CVS-IP/STEOM-CCSD   
  Vijay G. Chilkuri      : MRCI spin determinant printing, contributions to CSF-ICE 
  Pauline Colinet        : FMM embedding                                 
  Dipayan Datta          : RHF DLPNO-CCSD density                        
  Achintya Kumar Dutta   : EOM-CC, STEOM-CC                              
  Nicolas Foglia         : Exact transition moments, OPA infrastructure, MCD improvements    
  Dmitry Ganyushin       : Spin-Orbit,Spin-Spin,Magnetic field MRCI      
  Miquel Garcia-Rates    : C-PCM and meta-GGA Hessian, CCSD/C-PCM, Gaussian charge scheme 
  Tiago L. C. Gouveia    : GS-ROHF, GS-ROCIS                             
  Yang Guo               : DLPNO-NEVPT2, F12-NEVPT2, CIM, IAO-localization        
  Andreas Hansen         : Spin unrestricted coupled pair/coupled cluster methods 
  Ingolf Harden          : AUTO-CI MPn and infrastructure                
  Benjamin Helmich-Paris : MC-RPA, TRAH-(SCF,CASSCF), AVAS, COSX integrals, SCF dyn. polar., MC-PDFT, srDFT 
  Lee Huntington         : MR-EOM, pCC                                   
  Robert Izsak           : Overlap fitted RIJCOSX, COSX-SCS-MP3, EOM     
  Riya Kayal             : Wick's Theorem for AUTO-CI, AUTO-CI UHF-CCSDT 
  Emily Kempfer          : AUTO-CI RHF CISDT and CCSDT, approximate NEVPT4
  Christian Kollmar      : KDIIS, OOCD, Brueckner-CCSD(T), CCSD density, CASPT2, CASPT2-K, improved NEVPT2 
  Axel Koslowski         : Symmetry handling                             
  Simone Kossmann        : meta-GGA functionals, TD-DFT gradient, OOMP2, (MP2 Hessian; deprecated post 5.0) 
  Lucas Lang             : DCDCAS, Hyperfine gauge corrections, ICE-SOC+SSC
  Marvin Lechner         : AUTO-CI (C++ implementation), FIC-MRCC        
  Spencer Leger          : CASSCF response                               
  Dagmar Lenk            : GEPOL surface, SMD, ORCA-2-JSON               
  Dimitrios Liakos       : Extrapolation schemes; Compound Job, Property file
  Dimitrios Manganas     : Further ROCIS development; embedding schemes. LFT, Crystal Embedding 
  Dimitrios Pantazis     : SARC Basis sets                               
  Anastasios Papadopoulos: AUTO-CI, single reference methods and gradients 
  Taras Petrenko         : pre 6.0 DFT Hessian and TD-DFT gradient,  ECA, NRVS 
  Petra Pikulova         : Analytic Raman intensities                    
  Peter Pinski           : DLPNO-MP2, DLPNO-MP2 Gradient                 
  Shashank Vittal Rao    : ES-AILFT, MagRelax                            
  Christoph Reimann      : Effective Core Potentials                     
  Marius Retegan         : Local ZFS, SOC                                
  Christoph Riplinger    : Optimizer, TS searches, QM/MM, DLPNO-CCSD(T), (RO)-DLPNO pert. Triples 
  Michael Roemelt        : Original ROCIS implementation, recursive CI coupling coefficients
  Masaaki Saitow         : Open-shell DLPNO-CCSD energy and density      
  Barbara Sandhoefer     : DKH picture change effects                    
  Yorick L. A. Schmerwitz: GMF and freeze-and-release deltaSCF, NEB S-IDPP initial path                    
  Kantharuban Sivalingam : CASSCF convergence/infrastructure, NEVPT2, NEVPT3, NEVPT4(SD), FIC-MRCI and CEPA variants
  Bernardo de Souza      : ESD, SOC TD-DFT                               
  Georgi L. Stoychev     : AutoAux, RI-MP2 NMR, DLPNO-MP2 response, X2C  
  Van Anh Tran           : RI-MP2 g-tensors                              
  Willem Van den Heuvel  : Paramagnetic NMR                              
  Zikuan Wang            : NOTCH, Electric field optimization            
  Frank Wennmohs         : Technical directorship and infrastructure     
  Hang Xu                : AUTO-CI-Response properties                   
                                                                         
[FACCTs GmbH]                                                            
  Markus Bursch, Nicolas Foglia, Miquel Garcia-Rates, Ingolf Harden, Hagen Neugebauer, Anastasios Papadopoulos, 
  Christoph Riplinger, Bernardo de Souza, Georgi L. Stoychev                                                    
                                                                 
  APM, various basis sets, CI-OPT, improved COSX, DLPNO-Multilevel,           
  DOCKER, DRACO, updates on ESD, Fragmentator, GOAT, IRC, LR-CPCM, L-BFGS, MBIS, meta-GGA TD-DFT gradient, ML-optimized integration grids, 
  MM, NACMEs, nearIR, NEB, NEB-TS, NL-DFT gradient (VV10), 2- and 3-layer-ONIOM, interface openCOSMO-RS, QMMM,   
  Crystal-QMMM, RESP, rigid body optimization, SF, symmetry and pop. for TD-DFT, various functionals, SOLVATOR                                   
                                                                         
[Other institutions]                                                     
  V. Asgeirsson          : NEB                                           
  Christoph Bannwarth    : sTDA-DFT, sTD-DFT, PBEh-3c, B97-3c, D3        
  Giovanni Bistoni       : ETS/NOCV, ADLD/ADEX, COVALED                  
  Martin Brehm           : Molecular dynamics                            
  Ronald Cardenas        : ETS/NOCV                                      
  Martina Colucci        : COVALED                                       
  Sebastian Ehlert       : rSCAN, r2SCAN, r2SCAN-3c, D4, dhf basis sets  
  Marvin Friede          : D4 for Fr, Ra, Ac-Lr                          
  Lars Goerigk           : TD-DFT with DH, B97 family of functionals     
  Stefan Grimme          : VdW corrections, initial TS optimization, DFT functionals, gCP, sTDA/sTD-DF 
  Waldemar Hujo          : DFT-NL                                        
  H. Jonsson             : NEB                                           
  Holger Kruse           : gCP                                           
  Marcel Mueller         : wB97X-3c, vDZP basis set                      
  Hagen Neugebauer       : wr2SCAN, Native XTB                           
  Gianluca Regni         : ADLD/ADEX                                     
  Tobias Risthaus        : pre 6.0 range-separated hybrid DFT and stability analysis
  Lukas Wittmann         : regularized MP2, r2SCAN double-hybrids, wr2SCAN        
                                                                         
We gratefully acknowledge several colleagues who have allowed us to      
interface, adapt or use parts of their codes:                            
  Ed Valeev, F. Pavosevic, A. Kumar             : LibInt (2-el integral package), F12 methods 
  Garnet Chan, S. Sharma, J. Yang, R. Olivares  : DMRG                   
  Ulf Ekstrom                                   : XCFun DFT Library      
  Mihaly Kallay                                 : mrcc  (arbitrary order and MRCC methods)
  Frank Weinhold                                : gennbo (NPA and NBO analysis)           
  Simon Mueller                                 : openCOSMO-RS                            
  Christopher J. Cramer and Donald G. Truhlar   : smd solvation model                     
  S Lehtola, MJT Oliveira, MAL Marques          : LibXC Library                           
  Liviu Ungur et al                             : ANISO software                          


 Your calculation uses the libint2 library for the computation of 2-el integrals
 For citations please refer to: http://libint.valeyev.net

 Your ORCA version has been built with support for libXC version: 7.0.0
 For citations please refer to: https://libxc.gitlab.io

 This ORCA versions uses:
   CBLAS   interface :  Fast vector & matrix operations
   LAPACKE interface :  Fast linear algebra routines
   SCALAPACK package :  Parallel linear algebra routines
   Shared memory     :  Shared parallel matrices
   BLAS/LAPACK       :  OpenBLAS 0.3.29  USE64BITINT DYNAMIC_ARCH NO_AFFINITY Haswell SINGLE_THREADED
        Core in use  :  Haswell
   Copyright (c) 2011-2014, The OpenBLAS Project


  ***********************************
  * Starting time: Fri Aug 14 00:30:49 2026
  * Host name:     steezy
  * Process ID:    445298
  * Working dir.:  /home/jannes/chlorophyll-ladder/012-bacteriochlorophyll-growth/bacteriochlorophyll_a/02_tddft_ch2cl2/camb3lyp
  ***********************************

NOTE: MaxCore=2200 MB was set to SCF,MP2,MDCI,CIPSI,MRCI,RASCI and CIS
      => If you want to overwrite this, your respective input block should be placed after the MaxCore statement


***************************************
The coordinates will be read from file: /home/jannes/chlorophyll-ladder/012-bacteriochlorophyll-growth/bacteriochlorophyll_a/01_opt_extended/bacteriochlorophyll_a_opt_extended_b3lypd4_tzvp.xyz
***************************************


XCFun DFT library Copyright 2009-2010 Ulf Ekstrom and contributors.
See http://admol.org/xcfun for more information.
This is free software; see the source code for copying conditions.
There is ABSOLUTELY NO WARRANTY; not even for MERCHANTABILITY or FITNESS FOR A PARTICULAR PURPOSE.
For details see the documentation.
Scientific users of this library should cite U. Ekstrom, L. Visscher, R. Bast, A. J. Thorvaldsen and K. Ruud;
J.Chem.Theor.Comp. 2010, DOI: 10.1021/ct100117s
XCFun Version 0.99 

================================================================================

----- Orbital basis set information -----
Your calculation utilizes the basis: def2-TZVP
   F. Weigend and R. Ahlrichs, Phys. Chem. Chem. Phys. 7, 3297 (2005).

----- AuxJ basis set information -----
Your calculation utilizes the auxiliary basis: def2/J
   H-Rn: F. Weigend, Phys. Chem. Chem. Phys. 8, 1057 (2006).
   Fr-Lr: K. Eichkorn, F. Weigend, O. Treutler, R. Ahlrichs; Theor. Chem. Acc. 97, 119 (1997).

================================================================================
                                        WARNINGS
                       Please study these warnings very carefully!
================================================================================


WARNING: CIS/ROCIS methods need fully converged wavefunctions
  ===> : Setting SCFConvForced true
         You can overwrite this default with %scf ConvForced false 


================================================================================
                                       INPUT FILE
================================================================================
NAME = tddft.inp
|  1> %pal nprocs 4 end
|  2> %maxcore 2200
|  3> ! CAM-B3LYP def2-TZVP def2/J RIJCOSX DefGrid3 TightSCF CPCM(CH2Cl2)
|  4> %tddft
|  5>   nroots 30
|  6>   tda false
|  7>   triplets false
|  8> end
|  9> * xyzfile 0 1 /home/jannes/chlorophyll-ladder/012-bacteriochlorophyll-growth/bacteriochlorophyll_a/01_opt_extended/bacteriochlorophyll_a_opt_extended_b3lypd4_tzvp.xyz
| 10> 
| 11>                          ****END OF INPUT****
================================================================================

                       ****************************
                       * Single Point Calculation *
                       ****************************

---------------------------------
CARTESIAN COORDINATES (ANGSTROEM)
---------------------------------
  Mg    41.654185   48.095014   22.382115
  C     38.395878   49.196119   22.227099
  C     42.679750   51.094416   21.176176
  C     44.841747   46.994541   22.608586
  C     40.525839   45.037233   23.583157
  N     40.650258   49.892075   21.790744
  C     39.309104   50.142195   21.824346
  C     39.001906   51.564507   21.414549
  C     40.340599   52.019553   20.796999
  C     41.309410   50.960472   21.289101
  C     40.295738   52.058053   19.265587
  C     38.534396   52.425597   22.600020
  C     39.486890   52.411392   23.791929
  C     38.931187   53.164502   24.977543
  O     37.757554   53.317191   25.210025
  O     39.916070   53.626758   25.765678
  N     43.456810   48.915214   21.992166
  C     43.684450   50.174742   21.505615
  C     45.096001   50.394661   21.358140
  C     45.721030   49.225922   21.772403
  C     44.668108   48.311345   22.167343
  C     45.697065   51.675403   20.876139
  C     47.161302   48.913623   21.819028
  O     47.595775   47.968588   22.458439
  C     48.134761   49.772692   21.036427
  N     42.541072   46.287612   22.997262
  C     43.875068   46.075791   22.972778
  C     44.213197   44.649768   23.360208
  C     42.880981   44.138485   23.943671
  C     41.892837   45.188841   23.472234
  C     44.681337   43.842016   22.145192
  C     42.883504   44.001105   25.478117
  C     43.152758   45.300525   26.234088
  N     39.885934   47.252563   22.804899
  C     39.549512   45.992179   23.266984
  C     38.118868   45.862645   23.380809
  C     37.618684   47.093849   22.975879
  C     38.726396   47.903031   22.638816
  C     37.364975   44.658723   23.830781
  C     36.401366   47.862170   22.773672
  O     35.242299   47.553691   22.911362
  C     36.884425   49.307576   22.304796
  C     36.215127   49.657560   20.996699
  O     36.663447   49.420929   19.902260
  O     35.029915   50.246642   21.210054
  C     34.241472   50.512071   20.040305
  C     39.494986   54.365743   26.952752
  C     38.950473   55.720426   26.627044
  C     39.676448   56.773630   26.243057
  C     41.171125   56.745343   26.092285
  C     38.999943   58.070852   25.883897
  C     39.010384   58.366607   24.376827
  C     38.270318   59.657093   24.030772
  C     38.124269   59.937774   22.528569
  C     39.482424   60.155203   21.856128
  C     37.178718   61.125838   22.302730
  C     36.762928   61.357191   20.850720
  C     35.744127   62.486379   20.702573
  C     35.207561   62.698600   19.279927
  C     36.308339   63.159752   18.321398
  C     34.023486   63.675351   19.301616
  C     33.263132   63.806379   17.982699
  C     32.027950   64.698003   18.101348
  C     31.164051   64.788870   16.836678
  C     31.910499   65.431018   15.665164
  C     29.868590   65.549157   17.127636
  H     43.012741   52.035993   20.762293
  H     45.867296   46.666859   22.678540
  H     40.175979   44.088007   23.968920
  H     38.212146   51.575882   20.661466
  H     40.630395   53.007479   21.164563
  H     41.271395   52.311340   18.847350
  H     39.995880   51.087560   18.864959
  H     39.573857   52.803152   18.923823
  H     38.402930   53.453395   22.248826
  H     37.550965   52.094894   22.934280
  H     39.654623   51.382225   24.127167
  H     40.468636   52.816685   23.545746
  H     46.498005   52.018533   21.531401
  H     46.121775   51.574317   19.874221
  H     44.954090   52.468979   20.835177
  H     49.091411   49.255906   21.003376
  H     47.783030   49.971608   20.023686
  H     48.277118   50.736295   21.530178
  H     45.006441   44.639331   24.111259
  H     42.626057   43.163125   23.521430
  H     44.890328   42.808566   22.431012
  H     43.913079   43.831660   21.368404
  H     45.589628   44.267151   21.715625
  H     41.917453   43.594531   25.791577
  H     43.635095   43.252218   25.748207
  H     43.137650   45.126904   27.311377
  H     44.127581   45.723247   25.983570
  H     42.394483   46.052847   26.008752
  H     36.300977   44.879238   23.899811
  H     37.492205   43.825890   23.132883
  H     37.708172   44.312578   24.809553
  H     36.540343   50.008910   23.067602
  H     33.323507   50.964839   20.404453
  H     34.767449   51.192836   19.371076
  H     34.027697   49.584411   19.510530
  H     38.752282   53.768642   27.479334
  H     40.402586   54.414373   27.550907
  H     37.872598   55.820537   26.676194
  H     41.623521   57.597522   26.607969
  H     41.619367   55.830591   26.475097
  H     41.455769   56.828644   25.039617
  H     37.964652   58.046846   26.232843
  H     39.493557   58.897600   26.409021
  H     40.042258   58.419719   24.022295
  H     38.542784   57.526455   23.852167
  H     37.269297   59.612776   24.473482
  H     38.775092   60.506815   24.507189
  H     37.657105   59.053728   22.073789
  H     39.380540   60.318337   20.782646
  H     39.983415   61.031060   22.280352
  H     40.141939   59.296864   21.990500
  H     36.275597   60.968995   22.902750
  H     37.648749   62.035818   22.696410
  H     37.644715   61.572527   20.243754
  H     36.332382   60.431367   20.449867
  H     34.896877   62.280187   21.365915
  H     36.186327   63.424616   21.060503
  H     34.829286   61.730985   18.922794
  H     35.935409   63.276077   17.303136
  H     36.713444   64.125181   18.640728
  H     37.134717   62.448953   18.282587
  H     33.321026   63.350476   20.077159
  H     34.381664   64.664174   19.614624
  H     33.926804   64.200016   17.209898
  H     32.955692   62.808976   17.645047
  H     31.404430   64.325162   18.921792
  H     32.336467   65.710075   18.392677
  H     30.895202   63.765309   16.545400
  H     31.268706   65.499592   14.783810
  H     32.230469   66.445712   15.921902
  H     32.798113   64.863348   15.382156
  H     29.223693   65.588677   16.246705
  H     29.304586   65.078558   17.936329
  H     30.082986   66.579302   17.427734

----------------------------
CARTESIAN COORDINATES (A.U.)
----------------------------
  NO LB      ZA    FRAG     MASS         X           Y           Z
   0 Mg   12.0000    0    24.305   78.715002   90.886405   42.296067
   1 C     6.0000    0    12.011   72.557694   92.967192   42.003129
   2 C     6.0000    0    12.011   80.653039   96.554453   40.017172
   3 C     6.0000    0    12.011   84.738622   88.806812   42.724035
   4 C     6.0000    0    12.011   76.582737   85.108036   44.565707
   5 N     7.0000    0    14.007   76.817854   94.282359   41.178538
   6 C     6.0000    0    12.011   74.283441   94.755017   41.242038
   7 C     6.0000    0    12.011   73.702921   97.442797   40.467633
   8 C     6.0000    0    12.011   76.232684   98.302708   39.300633
   9 C     6.0000    0    12.011   78.063471   96.301336   40.230571
  10 C     6.0000    0    12.011   76.147909   98.375463   36.406684
  11 C     6.0000    0    12.011   72.819456   99.070021   42.707848
  12 C     6.0000    0    12.011   74.619409   99.043177   44.960229
  13 C     6.0000    0    12.011   73.569282  100.466349   47.200716
  14 O     8.0000    0    15.999   71.351436  100.754889   47.640043
  15 O     8.0000    0    15.999   75.430440  101.339886   48.690076
  16 N     7.0000    0    14.007   82.121470   92.436357   41.559170
  17 C     6.0000    0    12.011   82.551647   94.816521   40.639723
  18 C     6.0000    0    12.011   85.219092   95.232108   40.361035
  19 C     6.0000    0    12.011   86.400225   93.023512   41.143878
  20 C     6.0000    0    12.011   84.410492   91.295211   41.890208
  21 C     6.0000    0    12.011   86.354937   97.652360   39.450185
  22 C     6.0000    0    12.011   89.121945   92.433351   41.231987
  23 O     8.0000    0    15.999   89.942979   90.647494   42.440300
  24 C     6.0000    0    12.011   90.961517   94.056757   39.753087
  25 N     7.0000    0    14.007   80.390975   87.470911   43.458526
  26 C     6.0000    0    12.011   82.911862   87.070627   43.412259
  27 C     6.0000    0    12.011   83.550833   84.375833   44.144395
  28 C     6.0000    0    12.011   81.033310   83.409650   45.246982
  29 C     6.0000    0    12.011   79.165989   85.394534   44.356094
  30 C     6.0000    0    12.011   84.435490   82.849403   41.848349
  31 C     6.0000    0    12.011   81.038077   83.150037   48.146664
  32 C     6.0000    0    12.011   81.546895   85.605585   49.575242
  33 N     7.0000    0    14.007   75.373492   89.294404   43.095013
  34 C     6.0000    0    12.011   74.737746   86.912622   43.968227
  35 C     6.0000    0    12.011   72.034220   86.667839   44.183325
  36 C     6.0000    0    12.011   71.089010   88.994477   43.418119
  37 C     6.0000    0    12.011   73.182283   90.523609   42.781162
  38 C     6.0000    0    12.011   70.609569   84.392756   45.033649
  39 C     6.0000    0    12.011   68.788612   90.446394   43.036003
  40 O     8.0000    0    15.999   66.598293   89.863453   43.296200
  41 C     6.0000    0    12.011   69.701462   93.177815   42.149955
  42 C     6.0000    0    12.011   68.436671   93.839189   39.678010
  43 O     8.0000    0    15.999   69.283873   93.392021   37.609821
  44 O     8.0000    0    15.999   66.196946   94.952393   40.081193
  45 C     6.0000    0    12.011   64.707004   95.453980   37.870688
  46 C     6.0000    0    12.011   74.634707  102.736365   50.933320
  47 C     6.0000    0    12.011   73.605726  105.296344   50.317821
  48 C     6.0000    0    12.011   74.977620  107.286612   49.592191
  49 C     6.0000    0    12.011   77.802151  107.233158   49.307274
  50 C     6.0000    0    12.011   73.699211  109.738006   48.913477
  51 C     6.0000    0    12.011   73.718942  110.296902   46.065528
  52 C     6.0000    0    12.011   72.320420  112.735569   45.411577
  53 C     6.0000    0    12.011   72.044427  113.265978   42.572826
  54 C     6.0000    0    12.011   74.610969  113.676859   41.302096
  55 C     6.0000    0    12.011   70.257595  115.511093   42.146052
  56 C     6.0000    0    12.011   69.471865  115.948288   39.402151
  57 C     6.0000    0    12.011   67.546610  118.082143   39.122193
  58 C     6.0000    0    12.011   66.532647  118.483183   36.433782
  59 C     6.0000    0    12.011   68.612817  119.354634   34.622425
  60 C     6.0000    0    12.011   64.295071  120.328975   36.474768
  61 C     6.0000    0    12.011   62.858210  120.576582   33.982377
  62 C     6.0000    0    12.011   60.524054  122.261508   34.206589
  63 C     6.0000    0    12.011   58.891521  122.433221   31.816711
  64 C     6.0000    0    12.011   60.302103  123.646705   29.602870
  65 C     6.0000    0    12.011   56.443455  123.869954   32.366541
  66 H     1.0000    0     1.008   81.282300   98.333776   39.235048
  67 H     1.0000    0     1.008   86.676627   88.187582   42.856230
  68 H     1.0000    0     1.008   75.921597   83.314258   45.294694
  69 H     1.0000    0     1.008   72.210490   97.464292   39.044513
  70 H     1.0000    0     1.008   76.780319  100.169618   39.995228
  71 H     1.0000    0     1.008   77.991634   98.854106   35.616329
  72 H     1.0000    0     1.008   75.581260   96.541497   35.649605
  73 H     1.0000    0     1.008   74.783751   99.783496   35.760843
  74 H     1.0000    0     1.008   72.571020  101.012277   42.044188
  75 H     1.0000    0     1.008   70.961039   98.445083   43.339508
  76 H     1.0000    0     1.008   74.936378   97.098333   45.593739
  77 H     1.0000    0     1.008   76.474639   99.809070   44.495012
  78 H     1.0000    0     1.008   87.868496   98.300781   40.688450
  79 H     1.0000    0     1.008   87.157524   97.461335   37.556835
  80 H     1.0000    0     1.008   84.950920   99.152001   39.372778
  81 H     1.0000    0     1.008   92.769322   93.080173   39.690629
  82 H     1.0000    0     1.008   90.296840   94.432654   37.839283
  83 H     1.0000    0     1.008   91.230531   95.877702   40.686139
  84 H     1.0000    0     1.008   85.049847   84.356111   45.563677
  85 H     1.0000    0     1.008   80.551574   81.566486   44.449060
  86 H     1.0000    0     1.008   84.830427   80.896466   42.388470
  87 H     1.0000    0     1.008   82.983692   82.829834   40.380432
  88 H     1.0000    0     1.008   86.151912   83.652791   41.036583
  89 H     1.0000    0     1.008   79.212507   82.381724   48.739016
  90 H     1.0000    0     1.008   82.458380   81.734846   48.657060
  91 H     1.0000    0     1.008   81.518344   85.277490   51.611023
  92 H     1.0000    0     1.008   83.389043   86.404414   49.101831
  93 H     1.0000    0     1.008   80.113962   87.027269   49.149418
  94 H     1.0000    0     1.008   68.598904   84.809469   45.164097
  95 H     1.0000    0     1.008   70.850000   82.818930   43.714813
  96 H     1.0000    0     1.008   71.258118   83.738637   46.883260
  97 H     1.0000    0     1.008   69.051240   94.503144   43.591450
  98 H     1.0000    0     1.008   62.972302   96.309587   38.558827
  99 H     1.0000    0     1.008   65.700956   96.740441   36.606029
 100 H     1.0000    0     1.008   64.303029   93.700958   36.869559
 101 H     1.0000    0     1.008   73.231201  101.608007   51.928416
 102 H     1.0000    0     1.008   76.349823  102.828263   52.063669
 103 H     1.0000    0     1.008   71.568839  105.485527   50.410701
 104 H     1.0000    0     1.008   78.657056  108.843542   50.281775
 105 H     1.0000    0     1.008   78.649206  105.504528   50.030683
 106 H     1.0000    0     1.008   78.340050  107.390573   47.318018
 107 H     1.0000    0     1.008   71.742796  109.692643   49.572889
 108 H     1.0000    0     1.008   74.632007  111.300335   49.905817
 109 H     1.0000    0     1.008   75.668902  110.397269   45.395558
 110 H     1.0000    0     1.008   72.835306  108.709246   45.074063
 111 H     1.0000    0     1.008   70.428764  112.651820   46.248178
 112 H     1.0000    0     1.008   73.274305  114.341310   46.311876
 113 H     1.0000    0     1.008   71.161616  111.595373   41.713417
 114 H     1.0000    0     1.008   74.418435  113.985139   39.273509
 115 H     1.0000    0     1.008   75.557705  115.331988   42.103763
 116 H     1.0000    0     1.008   75.857271  112.054833   41.556023
 117 H     1.0000    0     1.008   68.550943  115.214703   43.279925
 118 H     1.0000    0     1.008   71.145824  117.230707   42.889999
 119 H     1.0000    0     1.008   71.138202  116.355213   38.255150
 120 H     1.0000    0     1.008   68.658251  114.198734   38.644649
 121 H     1.0000    0     1.008   65.945540  117.692497   40.375727
 122 H     1.0000    0     1.008   68.382248  119.855154   39.798584
 123 H     1.0000    0     1.008   65.817811  116.654655   35.758899
 124 H     1.0000    0     1.008   67.908081  119.574457   32.698188
 125 H     1.0000    0     1.008   69.378355  121.179031   35.225870
 126 H     1.0000    0     1.008   70.174444  118.011418   34.549082
 127 H     1.0000    0     1.008   62.967614  119.715050   37.940333
 128 H     1.0000    0     1.008   64.971930  122.197580   37.066268
 129 H     1.0000    0     1.008   64.112367  121.320447   32.521995
 130 H     1.0000    0     1.008   62.277233  118.691764   33.344307
 131 H     1.0000    0     1.008   59.345772  121.556939   35.757005
 132 H     1.0000    0     1.008   61.107067  124.174045   34.757123
 133 H     1.0000    0     1.008   58.383471  120.498971   31.266275
 134 H     1.0000    0     1.008   59.089290  123.776292   27.937353
 135 H     1.0000    0     1.008   60.906759  125.564199   30.088034
 136 H     1.0000    0     1.008   61.979451  122.573964   29.068062
 137 H     1.0000    0     1.008   55.224776  123.944637   30.701822
 138 H     1.0000    0     1.008   55.377642  122.980652   33.894749
 139 H     1.0000    0     1.008   56.848605  125.816647   32.933644

--------------------------------
INTERNAL COORDINATES (ANGSTROEM)
--------------------------------
 Mg     0   0   0     0.000000000000     0.00000000     0.00000000
 C      1   0   0     3.442822576636     0.00000000     0.00000000
 C      1   2   0     3.391531285625    89.27379526     0.00000000
 C      1   2   3     3.379775498795   178.68423197   127.32406749
 C      1   2   3     3.473570507969    89.40887264   180.53794777
 N      1   2   3     2.141732801460    43.58003832     0.11090155
 C      6   1   2     1.364691414325   127.41948713     1.07056829
 C      7   6   1     1.511712742358   111.43666168   176.00992723
 C      8   7   6     1.542897338756   102.10315393    13.46498825
 C      6   1   2     1.351886955168   122.48131868   182.42025883
 C      9   8   7     1.532552736982   112.45554488   104.11554453
 C      8   7   6     1.537979908075   112.30863114   250.91324535
 C     12   8   7     1.525809123395   114.02584502    53.55888874
 C     13  12   8     1.510517084465   112.26203018   185.25100837
 O     14  13  12     1.206141450090   124.91634702    27.21103301
 O     14  13  12     1.343440084959   111.24274088   205.97397103
 N      1   2   3     2.018476041096   134.95416498     2.25914019
 C     17   1   2     1.369292792013   126.21998472   357.41567272
 C     18  17   1     1.436171650307   109.92181242   180.07534682
 C     19  18  17     1.388605156575   106.43211159   359.96393603
 C     17   1   2     1.364766257928   126.01833725   177.40321797
 C     19  18  17     1.494625119211   124.02723872   181.27915309
 C     20  19  18     1.474478961668   128.85645071   179.71182275
 O     23  20  19     1.220944265732   121.87679999   164.28552897
 C     23  20  19     1.515944062947   119.39966630   343.32681133
 N      1   2   3     2.105154224909   133.35062424   179.73527050
 C     26   1   2     1.350930508859   123.04757831   180.13538757
 C     27  26   1     1.515907608044   111.29225075   184.78404961
 C     28  27  26     1.541634719739   102.47179288   347.04668041
 C     26   1   2     1.361288157653   126.46498462   359.75567540
 C     28  27  26     1.532279387962   111.18551198   107.93223998
 C     29  28  27     1.540585487210   113.89877928   253.64836923
 C     32  29  28     1.527246755281   114.67265954    59.92822059
 N      1   2   3     2.003791824596    46.27529949   181.22260356
 C     34   1   2     1.383933156407   131.90213610   179.70637604
 C     35  34   1     1.440998978098   110.46196832   181.46862980
 C     36  35  34     1.389249564606   104.75952235   359.71581260
 C     34   1   2     1.339857884193   122.23746672     0.94590271
 C     36  35  34     1.490052685810   126.78392204   179.45899266
 C     37  36  35     1.453640074009   144.14207541   180.44565283
 O     40  37  36     1.207292425423   130.77273245   357.90957225
 C      2   1   3     1.517547159741   164.53417584   179.98171429
 C     42   2   1     1.510485445098   114.45640537   236.65105402
 O     43  42   2     1.206143037713   125.14517354    25.93115015
 O     43  42   2     1.340620926581   110.83793086   204.57463086
 C     45  43  42     1.435411877567   115.92326041   185.66164535
 C     16  14  13     1.460326472057   116.07910134   180.41601552
 C     47  16  14     1.495909802625   112.72042119   287.76467119
 C     48  47  16     1.335561344488   125.37145776   286.60779164
 C     49  48  47     1.502528875259   123.69258929   359.50974429
 C     49  48  47     1.506466067918   120.23168817   177.26804634
 C     51  49  48     1.535851292928   113.37278381   252.54242440
 C     52  51  49     1.527353279793   112.44123692   177.67555540
 C     53  52  51     1.535162712251   114.97892410   185.78419736
 C     54  53  52     1.531025231347   111.79895102   295.86302091
 C     54  53  52     1.535110829703   110.12421088   170.89546266
 C     56  54  53     1.527985241248   115.12482927   189.93479190
 C     57  56  54     1.528059843717   112.67145119   175.80152829
 C     58  57  56     1.535207680015   115.15201269   184.36514357
 C     59  58  57     1.530735740720   111.75167665   294.87378157
 C     59  58  57     1.535104571984   110.14820679   169.92583379
 C     61  59  58     1.528021002671   115.22572765   188.99215594
 C     62  61  59     1.527987654961   112.66020692   175.06684628
 C     63  62  61     1.534263987452   115.19651454   184.22607196
 C     64  63  62     1.530354066497   112.40875057   296.34072602
 C     64  63  62     1.530003248709   110.45258640   172.42960905
 H      3   1   2     1.081087118111   178.22904167   254.25841233
 H      4   1  34     1.078896998460   178.66999951   195.24121964
 H      5   1   2     1.082703074296   179.35529804   265.21365120
 H      8   7   6     1.091322363625   110.11642317   130.73935530
 H      9   8   7     1.093198737172   111.22043992   226.33211750
 H     11   9   8     1.091322069902   111.26088326   184.14167391
 H     11   9   8     1.091913112386   110.63067436   304.35879309
 H     11   9   8     1.092285711510   110.43463281    63.94681169
 H     12   8   7     1.094069682986   108.36514711   175.82700546
 H     12   8   7     1.090060544107   109.92221944   291.20274690
 H     13  12   8     1.095310260924   110.08619827   303.74708667
 H     13  12   8     1.090271423672   112.47432966    62.07341105
 H     22  19  18     1.090234665521   111.79615968   130.59689718
 H     22  19  18     1.092902623323   111.87995063   250.76370436
 H     22  19  18     1.087865281676   111.25864342    10.84542860
 H     25  23  20     1.087813424053   108.13087679   193.24939594
 H     25  23  20     1.090379910872   112.06919779   314.66374505
 H     25  23  20     1.092055159606   110.50754805    74.56045501
 H     28  27  26     1.092439327820   110.28311461   228.40621121
 H     29  28  27     1.092978321018   110.56698860   132.09706977
 H     31  28  27     1.092423451422   110.46789319   181.85517930
 H     31  28  27     1.092578376366   110.72768338   301.64546609
 H     31  28  27     1.090991084792   111.17086532    61.71455896
 H     32  29  28     1.093989303176   108.48655718   182.37815009
 H     32  29  28     1.094838061988   107.92861482   297.20798416
 H     33  32  29     1.091294590087   110.53826935   179.90369813
 H     33  32  29     1.091665379266   111.91938455   299.68319771
 H     33  32  29     1.091671815044   111.20540736    60.34421836
 H     39  36  35     1.088799048765   110.48320409   175.04821543
 H     39  36  35     1.094011147724   111.32130243   294.98593094
 H     39  36  35     1.093433088526   111.54865231    54.51817351
 H     42   2   1     1.091849334508   113.37941207   111.51741459
 H     46  45  43     1.086398841088   105.54728233   178.88567943
 H     46  45  43     1.089936063876   110.53595156   298.60678678
 H     46  45  43     1.089455128400   110.27975468    59.38828671
 H     47  16  14     1.088773145007   108.19933702    50.53344915
 H     47  16  14     1.088068223579   103.23631702   166.10474124
 H     48  47  16     1.083628784739   115.83976796   104.08948511
 H     50  49  48     1.093983941695   110.45088940   229.16933306
 H     50  49  48     1.088226384394   112.97161483   351.00163982
 H     50  49  48     1.093651004596   110.73587103   111.23748701
 H     51  49  48     1.092778788349   109.29289796    14.22799128
 H     51  49  48     1.096778797393   109.44133268   130.93652465
 H     52  51  49     1.092373284981   109.52725167   300.38175508
 H     52  51  49     1.095341275632   108.62729540    56.40608257
 H     53  52  51     1.095445035900   108.48320544   307.33132390
 H     53  52  51     1.097177209814   109.45417681    62.60794460
 H     54  53  52     1.098454942184   107.36408651    54.19429773
 H     55  54  53     1.090576583699   111.75846323   177.91528680
 H     55  54  53     1.094569733198   110.45303052   297.83874869
 H     55  54  53     1.090762170152   111.74678440    57.80211755
 H     56  54  53     1.095559821910   108.44451781   311.69982186
 H     56  54  53     1.097259055719   108.97760134    66.63796595
 H     57  56  54     1.091937445561   109.77554527   298.50983537
 H     57  56  54     1.096906114294   109.04324722    54.56233822
 H     58  57  56     1.095613864776   108.53095530   306.13502026
 H     58  57  56     1.097243751693   109.36323617    61.30525587
 H     59  58  57     1.098597074055   107.44770152    53.20559313
 H     60  59  58     1.090626968696   111.76967582   177.95116219
 H     60  59  58     1.094593528292   110.43686888   297.89346797
 H     60  59  58     1.090706996051   111.76467176    57.82550027
 H     61  59  58     1.095655424138   108.41286796   310.76719854
 H     61  59  58     1.097285926847   109.00396266    65.64718767
 H     62  61  59     1.092076323728   109.83485239   297.58197610
 H     62  61  59     1.096968748863   109.09748210    53.69540355
 H     63  62  61     1.095863261513   108.63552213   306.11394692
 H     63  62  61     1.097426304316   109.35985726    61.33229487
 H     64  63  62     1.097633898378   107.54332761    54.98227989
 H     65  64  63     1.092421699897   110.94023736   180.99111508
 H     65  64  63     1.094485645193   110.61227749   300.35308129
 H     65  64  63     1.090963986591   112.15366258    60.71309618
 H     66  64  63     1.092471391248   111.37373074   182.24209523
 H     66  64  63     1.092496296978   111.33562207   302.74848061
 H     66  64  63     1.094177512146   110.73766633    62.51731883

---------------------------
INTERNAL COORDINATES (A.U.)
---------------------------
 Mg     0   0   0     0.000000000000     0.00000000     0.00000000
 C      1   0   0     6.505991797524     0.00000000     0.00000000
 C      1   2   0     6.409065304457    89.27379526     0.00000000
 C      1   2   3     6.386850086860   178.68423197   127.32406749
 C      1   2   3     6.564096966928    89.40887264   180.53794777
 N      1   2   3     4.047288446795    43.58003832     0.11090155
 C      6   1   2     2.578893030389   127.41948713     1.07056829
 C      7   6   1     2.856723076216   111.43666168   176.00992723
 C      8   7   6     2.915653423005   102.10315393    13.46498825
 C      6   1   2     2.554696109289   122.48131868   182.42025883
 C      9   8   7     2.896104958687   112.45554488   104.11554453
 C      8   7   6     2.906360825736   112.30863114   250.91324535
 C     12   8   7     2.883361375856   114.02584502    53.55888874
 C     13  12   8     2.854463610248   112.26203018   185.25100837
 O     14  13  12     2.279277019441   124.91634702    27.21103301
 O     14  13  12     2.538733837904   111.24274088   205.97397103
 N      1   2   3     3.814366925553   134.95416498     2.25914019
 C     17   1   2     2.587588374058   126.21998472   357.41567272
 C     18  17   1     2.713971100383   109.92181242   180.07534682
 C     19  18  17     2.624083454077   106.43211159   359.96393603
 C     17   1   2     2.579034464300   126.01833725   177.40321797
 C     19  18  17     2.824432148189   124.02723872   181.27915309
 C     20  19  18     2.786361427781   128.85645071   179.71182275
 O     23  20  19     2.307250287016   121.87679999   164.28552897
 C     23  20  19     2.864719113314   119.39966630   343.32681133
 N      1   2   3     3.978164954745   133.35062424   179.73527050
 C     26   1   2     2.552888687702   123.04757831   180.13538757
 C     27  26   1     2.864650223531   111.29225075   184.78404961
 C     28  27  26     2.913267418852   102.47179288   347.04668041
 C     26   1   2     2.572461807314   126.46498462   359.75567540
 C     28  27  26     2.895588403900   111.18551198   107.93223998
 C     29  28  27     2.911284656720   113.89877928   253.64836923
 C     32  29  28     2.886078106402   114.67265954    59.92822059
 N      1   2   3     3.786617777878    46.27529949   181.22260356
 C     34   1   2     2.615254653263   131.90213610   179.70637604
 C     35  34   1     2.723093427866   110.46196832   181.46862980
 C     36  35  34     2.625301208774   104.75952235   359.71581260
 C     34   1   2     2.531964459500   122.23746672     0.94590271
 C     36  35  34     2.815791501295   126.78392204   179.45899266
 C     37  36  35     2.746981637170   144.14207541   180.44565283
 O     40  37  36     2.281452047607   130.77273245   357.90957225
 C      2   1   3     2.867748527220   164.53417584   179.98171429
 C     42   2   1     2.854403820509   114.45640537   236.65105402
 O     43  42   2     2.279280019613   125.14517354    25.93115015
 O     43  42   2     2.533406400642   110.83793086   204.57463086
 C     45  43  42     2.712535337980   115.92326041   185.66164535
 C     16  14  13     2.759617098303   116.07910134   180.41601552
 C     47  16  14     2.826859848010   112.72042119   287.76467119
 C     48  47  16     2.523845176134   125.37145776   286.60779164
 C     49  48  47     2.839368082549   123.69258929   359.50974429
 C     49  48  47     2.846808298409   120.23168817   177.26804634
 C     51  49  48     2.902338326063   113.37278381   252.54242440
 C     52  51  49     2.886279408555   112.44123692   177.67555540
 C     53  52  51     2.901037097162   114.97892410   185.78419736
 C     54  53  52     2.893218391368   111.79895102   295.86302091
 C     54  53  52     2.900939053356   110.12421088   170.89546266
 C     56  54  53     2.887473642633   115.12482927   189.93479190
 C     57  56  54     2.887614620867   112.67145119   175.80152829
 C     58  57  56     2.901122073921   115.15201269   184.36514357
 C     59  58  57     2.892671333365   111.75167665   294.87378157
 C     59  58  57     2.900927227981   110.14820679   169.92583379
 C     61  59  58     2.887541221928   115.22572765   188.99215594
 C     62  61  59     2.887478203888   112.66020692   175.06684628
 C     63  62  61     2.899338753422   115.19651454   184.22607196
 C     64  63  62     2.891950073612   112.40875057   296.34072602
 C     64  63  62     2.891287124070   110.45258640   172.42960905
 H      3   1   2     2.042958580139   178.22904167   254.25841233
 H      4   1  34     2.038819853800   178.66999951   195.24121964
 H      5   1   2     2.046012294774   179.35529804   265.21365120
 H      8   7   6     2.062300391075   110.11642317   130.73935530
 H      9   8   7     2.065846223204   111.22043992   226.33211750
 H     11   9   8     2.062299836019   111.26088326   184.14167391
 H     11   9   8     2.063416744447   110.63067436   304.35879309
 H     11   9   8     2.064120854749   110.43463281    63.94681169
 H     12   8   7     2.067492072269   108.36514711   175.82700546
 H     12   8   7     2.059915897756   109.92221944   291.20274690
 H     13  12   8     2.069836424820   110.08619827   303.74708667
 H     13  12   8     2.060314402381   112.47432966    62.07341105
 H     22  19  18     2.060244939543   111.79615968   130.59689718
 H     22  19  18     2.065286649124   111.87995063   250.76370436
 H     22  19  18     2.055767452968   111.25864342    10.84542860
 H     25  23  20     2.055669456264   108.13087679   193.24939594
 H     25  23  20     2.060519413477   112.06919779   314.66374505
 H     25  23  20     2.063685174790   110.50754805    74.56045501
 H     28  27  26     2.064411147505   110.28311461   228.40621121
 H     29  28  27     2.065429697037   110.56698860   132.09706977
 H     31  28  27     2.064381145461   110.46789319   181.85517930
 H     31  28  27     2.064673911177   110.72768338   301.64546609
 H     31  28  27     2.061674364807   111.17086532    61.71455896
 H     32  29  28     2.067340176442   108.48655718   182.37815009
 H     32  29  28     2.068944098150   107.92861482   297.20798416
 H     33  32  29     2.062247906694   110.53826935   179.90369813
 H     33  32  29     2.062948596695   111.91938455   299.68319771
 H     33  32  29     2.062960758553   111.20540736    60.34421836
 H     39  36  35     2.057532017041   110.48320409   175.04821543
 H     39  36  35     2.067381456656   111.32130243   294.98593094
 H     39  36  35     2.066289083081   111.54865231    54.51817351
 H     42   2   1     2.063296221725   113.37941207   111.51741459
 H     46  45  43     2.052996281866   105.54728233   178.88567943
 H     46  45  43     2.059680664210   110.53595156   298.60678678
 H     46  45  43     2.058771827873   110.27975468    59.38828671
 H     47  16  14     2.057483066032   108.19933702    50.53344915
 H     47  16  14     2.056150957587   103.23631702   166.10474124
 H     48  47  16     2.047761633991   115.83976796   104.08948511
 H     50  49  48     2.067330044711   110.45088940   229.16933306
 H     50  49  48     2.056449838212   112.97161483   351.00163982
 H     50  49  48     2.066700884774   110.73587103   111.23748701
 H     51  49  48     2.065052634938   109.29289796    14.22799128
 H     51  49  48     2.072611556565   109.44133268   130.93652465
 H     52  51  49     2.064286344627   109.52725167   300.38175508
 H     52  51  49     2.069895034124   108.62729540    56.40608257
 H     53  52  51     2.070091112614   108.48320544   307.33132390
 H     53  52  51     2.073364446928   109.45417681    62.60794460
 H     54  53  52     2.075779011180   107.36408651    54.19429773
 H     55  54  53     2.060891071258   111.75846323   177.91528680
 H     55  54  53     2.068437030224   110.45303052   297.83874869
 H     55  54  53     2.061241778830   111.74678440    57.80211755
 H     56  54  53     2.070308026738   108.44451781   311.69982186
 H     56  54  53     2.073519113274   108.97760134    66.63796595
 H     57  56  54     2.063462727485   109.77554527   298.50983537
 H     57  56  54     2.072852150640   109.04324722    54.56233822
 H     58  57  56     2.070410152953   108.53095530   306.13502026
 H     58  57  56     2.073490192857   109.36323617    61.30525587
 H     59  58  57     2.076047601491   107.44770152    53.20559313
 H     60  59  58     2.060986285105   111.76967582   177.95116219
 H     60  59  58     2.068481996434   110.43686888   297.89346797
 H     60  59  58     2.061137514889   111.76467176    57.82550027
 H     61  59  58     2.070488688765   108.41286796   310.76719854
 H     61  59  58     2.073569892347   109.00396266    65.64718767
 H     62  61  59     2.063725169186   109.83485239   297.58197610
 H     62  61  59     2.072970512822   109.09748210    53.69540355
 H     63  62  61     2.070881444485   108.63552213   306.11394692
 H     63  62  61     2.073835167319   109.35985726    61.33229487
 H     64  63  62     2.074227463243   107.54332761    54.98227989
 H     65  64  63     2.064377835557   110.94023736   180.99111508
 H     65  64  63     2.068278126922   110.61227749   300.35308129
 H     65  64  63     2.061623156628   112.15366258    60.71309618
 H     66  64  63     2.064471738602   111.37373074   182.24209523
 H     66  64  63     2.064518803611   111.33562207   302.74848061
 H     66  64  63     2.067695839851   110.73766633    62.51731883

---------------------
BASIS SET INFORMATION
---------------------
There are 5 groups of distinct atoms

 Group   1 Type Mg  : 14s8p3d contracted to 5s4p3d pattern {73211/5111/111}
 Group   2 Type C   : 11s6p2d1f contracted to 5s3p2d1f pattern {62111/411/11/1}
 Group   3 Type N   : 11s6p2d1f contracted to 5s3p2d1f pattern {62111/411/11/1}
 Group   4 Type O   : 11s6p2d1f contracted to 5s3p2d1f pattern {62111/411/11/1}
 Group   5 Type H   : 5s1p contracted to 3s1p pattern {311/1}

Atom   0Mg   basis set group =>   1
Atom   1C    basis set group =>   2
Atom   2C    basis set group =>   2
Atom   3C    basis set group =>   2
Atom   4C    basis set group =>   2
Atom   5N    basis set group =>   3
Atom   6C    basis set group =>   2
Atom   7C    basis set group =>   2
Atom   8C    basis set group =>   2
Atom   9C    basis set group =>   2
Atom  10C    basis set group =>   2
Atom  11C    basis set group =>   2
Atom  12C    basis set group =>   2
Atom  13C    basis set group =>   2
Atom  14O    basis set group =>   4
Atom  15O    basis set group =>   4
Atom  16N    basis set group =>   3
Atom  17C    basis set group =>   2
Atom  18C    basis set group =>   2
Atom  19C    basis set group =>   2
Atom  20C    basis set group =>   2
Atom  21C    basis set group =>   2
Atom  22C    basis set group =>   2
Atom  23O    basis set group =>   4
Atom  24C    basis set group =>   2
Atom  25N    basis set group =>   3
Atom  26C    basis set group =>   2
Atom  27C    basis set group =>   2
Atom  28C    basis set group =>   2
Atom  29C    basis set group =>   2
Atom  30C    basis set group =>   2
Atom  31C    basis set group =>   2
Atom  32C    basis set group =>   2
Atom  33N    basis set group =>   3
Atom  34C    basis set group =>   2
Atom  35C    basis set group =>   2
Atom  36C    basis set group =>   2
Atom  37C    basis set group =>   2
Atom  38C    basis set group =>   2
Atom  39C    basis set group =>   2
Atom  40O    basis set group =>   4
Atom  41C    basis set group =>   2
Atom  42C    basis set group =>   2
Atom  43O    basis set group =>   4
Atom  44O    basis set group =>   4
Atom  45C    basis set group =>   2
Atom  46C    basis set group =>   2
Atom  47C    basis set group =>   2
Atom  48C    basis set group =>   2
Atom  49C    basis set group =>   2
Atom  50C    basis set group =>   2
Atom  51C    basis set group =>   2
Atom  52C    basis set group =>   2
Atom  53C    basis set group =>   2
Atom  54C    basis set group =>   2
Atom  55C    basis set group =>   2
Atom  56C    basis set group =>   2
Atom  57C    basis set group =>   2
Atom  58C    basis set group =>   2
Atom  59C    basis set group =>   2
Atom  60C    basis set group =>   2
Atom  61C    basis set group =>   2
Atom  62C    basis set group =>   2
Atom  63C    basis set group =>   2
Atom  64C    basis set group =>   2
Atom  65C    basis set group =>   2
Atom  66H    basis set group =>   5
Atom  67H    basis set group =>   5
Atom  68H    basis set group =>   5
Atom  69H    basis set group =>   5
Atom  70H    basis set group =>   5
Atom  71H    basis set group =>   5
Atom  72H    basis set group =>   5
Atom  73H    basis set group =>   5
Atom  74H    basis set group =>   5
Atom  75H    basis set group =>   5
Atom  76H    basis set group =>   5
Atom  77H    basis set group =>   5
Atom  78H    basis set group =>   5
Atom  79H    basis set group =>   5
Atom  80H    basis set group =>   5
Atom  81H    basis set group =>   5
Atom  82H    basis set group =>   5
Atom  83H    basis set group =>   5
Atom  84H    basis set group =>   5
Atom  85H    basis set group =>   5
Atom  86H    basis set group =>   5
Atom  87H    basis set group =>   5
Atom  88H    basis set group =>   5
Atom  89H    basis set group =>   5
Atom  90H    basis set group =>   5
Atom  91H    basis set group =>   5
Atom  92H    basis set group =>   5
Atom  93H    basis set group =>   5
Atom  94H    basis set group =>   5
Atom  95H    basis set group =>   5
Atom  96H    basis set group =>   5
Atom  97H    basis set group =>   5
Atom  98H    basis set group =>   5
Atom  99H    basis set group =>   5
Atom 100H    basis set group =>   5
Atom 101H    basis set group =>   5
Atom 102H    basis set group =>   5
Atom 103H    basis set group =>   5
Atom 104H    basis set group =>   5
Atom 105H    basis set group =>   5
Atom 106H    basis set group =>   5
Atom 107H    basis set group =>   5
Atom 108H    basis set group =>   5
Atom 109H    basis set group =>   5
Atom 110H    basis set group =>   5
Atom 111H    basis set group =>   5
Atom 112H    basis set group =>   5
Atom 113H    basis set group =>   5
Atom 114H    basis set group =>   5
Atom 115H    basis set group =>   5
Atom 116H    basis set group =>   5
Atom 117H    basis set group =>   5
Atom 118H    basis set group =>   5
Atom 119H    basis set group =>   5
Atom 120H    basis set group =>   5
Atom 121H    basis set group =>   5
Atom 122H    basis set group =>   5
Atom 123H    basis set group =>   5
Atom 124H    basis set group =>   5
Atom 125H    basis set group =>   5
Atom 126H    basis set group =>   5
Atom 127H    basis set group =>   5
Atom 128H    basis set group =>   5
Atom 129H    basis set group =>   5
Atom 130H    basis set group =>   5
Atom 131H    basis set group =>   5
Atom 132H    basis set group =>   5
Atom 133H    basis set group =>   5
Atom 134H    basis set group =>   5
Atom 135H    basis set group =>   5
Atom 136H    basis set group =>   5
Atom 137H    basis set group =>   5
Atom 138H    basis set group =>   5
Atom 139H    basis set group =>   5
---------------------------------
AUXILIARY/J BASIS SET INFORMATION
---------------------------------
There are 5 groups of distinct atoms

 Group   1 Type Mg  : 14s5p5d2f1g contracted to 8s4p4d1f1g pattern {71111111/2111/2111/2/1}
 Group   2 Type C   : 12s5p4d2f1g contracted to 6s4p3d1f1g pattern {711111/2111/211/2/1}
 Group   3 Type N   : 12s5p4d2f1g contracted to 6s4p3d1f1g pattern {711111/2111/211/2/1}
 Group   4 Type O   : 12s5p4d2f1g contracted to 6s4p3d1f1g pattern {711111/2111/211/2/1}
 Group   5 Type H   : 5s2p1d contracted to 3s1p1d pattern {311/2/1}

Atom   0Mg   basis set group =>   1
Atom   1C    basis set group =>   2
Atom   2C    basis set group =>   2
Atom   3C    basis set group =>   2
Atom   4C    basis set group =>   2
Atom   5N    basis set group =>   3
Atom   6C    basis set group =>   2
Atom   7C    basis set group =>   2
Atom   8C    basis set group =>   2
Atom   9C    basis set group =>   2
Atom  10C    basis set group =>   2
Atom  11C    basis set group =>   2
Atom  12C    basis set group =>   2
Atom  13C    basis set group =>   2
Atom  14O    basis set group =>   4
Atom  15O    basis set group =>   4
Atom  16N    basis set group =>   3
Atom  17C    basis set group =>   2
Atom  18C    basis set group =>   2
Atom  19C    basis set group =>   2
Atom  20C    basis set group =>   2
Atom  21C    basis set group =>   2
Atom  22C    basis set group =>   2
Atom  23O    basis set group =>   4
Atom  24C    basis set group =>   2
Atom  25N    basis set group =>   3
Atom  26C    basis set group =>   2
Atom  27C    basis set group =>   2
Atom  28C    basis set group =>   2
Atom  29C    basis set group =>   2
Atom  30C    basis set group =>   2
Atom  31C    basis set group =>   2
Atom  32C    basis set group =>   2
Atom  33N    basis set group =>   3
Atom  34C    basis set group =>   2
Atom  35C    basis set group =>   2
Atom  36C    basis set group =>   2
Atom  37C    basis set group =>   2
Atom  38C    basis set group =>   2
Atom  39C    basis set group =>   2
Atom  40O    basis set group =>   4
Atom  41C    basis set group =>   2
Atom  42C    basis set group =>   2
Atom  43O    basis set group =>   4
Atom  44O    basis set group =>   4
Atom  45C    basis set group =>   2
Atom  46C    basis set group =>   2
Atom  47C    basis set group =>   2
Atom  48C    basis set group =>   2
Atom  49C    basis set group =>   2
Atom  50C    basis set group =>   2
Atom  51C    basis set group =>   2
Atom  52C    basis set group =>   2
Atom  53C    basis set group =>   2
Atom  54C    basis set group =>   2
Atom  55C    basis set group =>   2
Atom  56C    basis set group =>   2
Atom  57C    basis set group =>   2
Atom  58C    basis set group =>   2
Atom  59C    basis set group =>   2
Atom  60C    basis set group =>   2
Atom  61C    basis set group =>   2
Atom  62C    basis set group =>   2
Atom  63C    basis set group =>   2
Atom  64C    basis set group =>   2
Atom  65C    basis set group =>   2
Atom  66H    basis set group =>   5
Atom  67H    basis set group =>   5
Atom  68H    basis set group =>   5
Atom  69H    basis set group =>   5
Atom  70H    basis set group =>   5
Atom  71H    basis set group =>   5
Atom  72H    basis set group =>   5
Atom  73H    basis set group =>   5
Atom  74H    basis set group =>   5
Atom  75H    basis set group =>   5
Atom  76H    basis set group =>   5
Atom  77H    basis set group =>   5
Atom  78H    basis set group =>   5
Atom  79H    basis set group =>   5
Atom  80H    basis set group =>   5
Atom  81H    basis set group =>   5
Atom  82H    basis set group =>   5
Atom  83H    basis set group =>   5
Atom  84H    basis set group =>   5
Atom  85H    basis set group =>   5
Atom  86H    basis set group =>   5
Atom  87H    basis set group =>   5
Atom  88H    basis set group =>   5
Atom  89H    basis set group =>   5
Atom  90H    basis set group =>   5
Atom  91H    basis set group =>   5
Atom  92H    basis set group =>   5
Atom  93H    basis set group =>   5
Atom  94H    basis set group =>   5
Atom  95H    basis set group =>   5
Atom  96H    basis set group =>   5
Atom  97H    basis set group =>   5
Atom  98H    basis set group =>   5
Atom  99H    basis set group =>   5
Atom 100H    basis set group =>   5
Atom 101H    basis set group =>   5
Atom 102H    basis set group =>   5
Atom 103H    basis set group =>   5
Atom 104H    basis set group =>   5
Atom 105H    basis set group =>   5
Atom 106H    basis set group =>   5
Atom 107H    basis set group =>   5
Atom 108H    basis set group =>   5
Atom 109H    basis set group =>   5
Atom 110H    basis set group =>   5
Atom 111H    basis set group =>   5
Atom 112H    basis set group =>   5
Atom 113H    basis set group =>   5
Atom 114H    basis set group =>   5
Atom 115H    basis set group =>   5
Atom 116H    basis set group =>   5
Atom 117H    basis set group =>   5
Atom 118H    basis set group =>   5
Atom 119H    basis set group =>   5
Atom 120H    basis set group =>   5
Atom 121H    basis set group =>   5
Atom 122H    basis set group =>   5
Atom 123H    basis set group =>   5
Atom 124H    basis set group =>   5
Atom 125H    basis set group =>   5
Atom 126H    basis set group =>   5
Atom 127H    basis set group =>   5
Atom 128H    basis set group =>   5
Atom 129H    basis set group =>   5
Atom 130H    basis set group =>   5
Atom 131H    basis set group =>   5
Atom 132H    basis set group =>   5
Atom 133H    basis set group =>   5
Atom 134H    basis set group =>   5
Atom 135H    basis set group =>   5
Atom 136H    basis set group =>   5
Atom 137H    basis set group =>   5
Atom 138H    basis set group =>   5
Atom 139H    basis set group =>   5


           ************************************************************
           *        Program running with 4 parallel MPI-processes     *
           *              working on a common directory               *
           ************************************************************
------------------------------------------------------------------------------
                             ORCA STARTUP CALCULATIONS
                           -- RI-GTO INTEGRALS CHOSEN --
------------------------------------------------------------------------------
------------------------------------------------------------------------------
                   ___                                                        
                  /   \      - P O W E R E D   B Y -                         
                 /     \                                                     
                 |  |  |   _    _      __       _____    __    __             
                 |  |  |  | |  | |    /  \     |  _  \  |  |  /  |          
                  \  \/   | |  | |   /    \    | | | |  |  | /  /          
                 / \  \   | |__| |  /  /\  \   | |_| |  |  |/  /          
                |  |  |   |  __  | /  /__\  \  |    /   |      \           
                |  |  |   | |  | | |   __   |  |    \   |  |\   \          
                \     /   | |  | | |  |  |  |  | |\  \  |  | \   \       
                 \___/    |_|  |_| |__|  |__|  |_| \__\ |__|  \__/        
                                                                              
                      - O R C A' S   B I G   F R I E N D -                    
                                      &                                       
                       - I N T E G R A L  F E E D E R -                       
                                                                              
 v1 FN, 2020, v2 2021, v3 2022-2024                                           
------------------------------------------------------------------------------


----------------------
SHARK INTEGRAL PACKAGE
----------------------

Number of atoms                             ...    140
Number of basis functions                   ...   2491
Number of shells                            ...   1023
Maximum angular momentum                    ...      3
Integral batch strategy                     ... SHARK/LIBINT Hybrid
RI-J (if used) integral strategy            ... SPLIT-RIJ (Revised 2003 algorithm where possible)
Printlevel                                  ...      1
Contraction scheme used                     ... SEGMENTED contraction
Prescreening option                         ... SCHWARTZ
   Thresh                                   ... 2.500e-11
   Tcut                                     ... 2.500e-12
   Tpresel                                  ... 2.500e-12 
Coulomb Range Separation                    ... NOT USED
Exchange Range Separation                   ... Long Range
   Mu parameter                             ... 3.300e-01
   Scaling (regular/separated)              ... 1.900e-01 4.600e-01
Robust (split-)RI terms used:
  metric    (central integrals)             ... YES
  density   (r.h.s.  integrals)             ... YES
  potential (l.h.s.  integrals)             ... YES
Multipole approximations                    ... NOT USED
Finite Nucleus Model                        ... NOT USED
CABS basis                                  ... NOT available
Auxiliary Coulomb fitting basis             ... AVAILABLE
   # of basis functions in Aux-J            ...   4055
   # of shells in Aux-J                     ...   1363
   Maximum angular momentum in Aux-J        ...      4
Auxiliary J/K fitting basis                 ... NOT available
Auxiliary Correlation fitting basis         ... NOT available
Auxiliary 'external' fitting basis          ... NOT available

Checking pre-screening integrals            ... done (  0.0 sec) Dimension = 1023
   => SHARK Basis and OBASIS are compatible. Storing Pre-screening
Shell pair information
Shell pair cut-off parameter TPreSel        ...   2.5e-12
Total number of shell pairs                 ...    523776
Shell pairs after pre-screening             ...    164136
Total number of primitive shell pairs       ...   1567252
Primitive shell pairs kept                  ...    307296
          la=0 lb=0:  46449 shell pairs
          la=1 lb=0:  50218 shell pairs
          la=1 lb=1:  13669 shell pairs
          la=2 lb=0:  21579 shell pairs
          la=2 lb=1:  11988 shell pairs
          la=2 lb=2:   2659 shell pairs
          la=3 lb=0:   9541 shell pairs
          la=3 lb=1:   5353 shell pairs
          la=3 lb=2:   2192 shell pairs
          la=3 lb=3:    488 shell pairs

Checking whether 4 symmetric matrices of dimension 2491 fit in memory
:Max Core in MB      =   2200.00
 MB in use           =    194.75
 MB left             =   2005.25
 MB needed           =     94.72
 Data fit in memory  = YES
Calculating RI/J V-Matrix + Cholesky decomp.... done (  1.7 sec)
Calculating Nuclear repulsion               ... done (  0.0 sec) ENN=   9704.014104954542 Eh

Diagonalization of the overlap matrix:
Smallest eigenvalue                        ... 3.958e-06
Time for diagonalization                   ...    2.940 sec
Threshold for overlap eigenvalues          ... 1.000e-07
Number of eigenvalues below threshold      ... 0
Time for construction of square roots      ...    2.792 sec
Total time needed                          ...    5.811 sec

-------------------
DFT GRID GENERATION
-------------------

General Integration Accuracy     IntAcc      ... 4.959
Radial Grid Type                 RadialGrid  ... OptM3 with GC (2021)
Angular Grid (max. ang.)         AngularGrid ... 6 (Lebedev-590)
Angular grid pruning method      GridPruning ... 4 (adaptive)
Weight generation scheme         WeightScheme... mBecke (2022)
Basis function cutoff            BFCut       ... 1.0000e-11
Integration weight cutoff        WCut        ... 1.0000e-14
Partially contracted basis set               ... off
Rotationally invariant grid construction     ... off
Angular grids for H and He will be reduced by one unit

Total number of grid points                  ...  1550343
Total number of batches                      ...    24295
Average number of points per batch           ...       63
Average number of grid points per atom       ...    11074

--------------------
COSX GRID GENERATION
--------------------

GRIDX 1
-------
General Integration Accuracy     IntAcc      ... 4.020
Radial Grid Type                 RadialGrid  ... OptM3 with GC (2021)
Angular Grid (max. ang.)         AngularGrid ... 2 (Lebedev-110)
Angular grid pruning method      GridPruning ... 4 (adaptive)
Weight generation scheme         WeightScheme... mBecke (2022)
Basis function cutoff            BFCut       ... 1.0000e-11
Integration weight cutoff        WCut        ... 1.0000e-14
Partially contracted basis set               ... on
Rotationally invariant grid construction     ... off
Angular grids for H and He will be reduced by one unit

Total number of grid points                  ...   166667
Total number of batches                      ...     1381
Average number of points per batch           ...      120
Average number of grid points per atom       ...     1190
UseSFitting                                  ... on

GRIDX 2
-------
General Integration Accuracy     IntAcc      ... 4.338
Radial Grid Type                 RadialGrid  ... OptM3 with GC (2021)
Angular Grid (max. ang.)         AngularGrid ... 3 (Lebedev-194)
Angular grid pruning method      GridPruning ... 4 (adaptive)
Weight generation scheme         WeightScheme... mBecke (2022)
Basis function cutoff            BFCut       ... 1.0000e-11
Integration weight cutoff        WCut        ... 1.0000e-14
Partially contracted basis set               ... on
Rotationally invariant grid construction     ... off
Angular grids for H and He will be reduced by one unit

Total number of grid points                  ...   361890
Total number of batches                      ...     2898
Average number of points per batch           ...      124
Average number of grid points per atom       ...     2585
UseSFitting                                  ... on

GRIDX 3
-------
General Integration Accuracy     IntAcc      ... 4.871
Radial Grid Type                 RadialGrid  ... OptM3 with GC (2021)
Angular Grid (max. ang.)         AngularGrid ... 4 (Lebedev-302)
Angular grid pruning method      GridPruning ... 4 (adaptive)
Weight generation scheme         WeightScheme... mBecke (2022)
Basis function cutoff            BFCut       ... 1.0000e-11
Integration weight cutoff        WCut        ... 1.0000e-14
Partially contracted basis set               ... on
Rotationally invariant grid construction     ... off
Angular grids for H and He will be reduced by one unit

Total number of grid points                  ...   686566
Total number of batches                      ...     5439
Average number of points per batch           ...      126
Average number of grid points per atom       ...     4904
UseSFitting                                  ... on
Grids setup in  71.5 sec
Initializing property integral containers    ... done (  0.0 sec)

SHARK setup successfully completed in  83.2 seconds

Maximum memory used throughout the entire STARTUP-calculation: 552.1 MB


           ************************************************************
           *        Program running with 4 parallel MPI-processes     *
           *              working on a common directory               *
           ************************************************************
-------------------------------------------------------------------------------
                                 ORCA GUESS
                   Start orbitals & Density for SCF / CASSCF
-------------------------------------------------------------------------------

------------
SCF SETTINGS
------------
Hamiltonian:
 Density Functional     Method          .... DFT(GTOs)
 Exchange Functional    Exchange        .... WB88
 Correlation Functional Correlation     .... LYP
 LDA part of GGA corr.  LDAOpt          .... VWN-5
 Gradients option       PostSCFGGA      .... off
 Hybrid DFT is turned on
   Fraction HF Exchange ScalHFX         ....  0.190000
   Scaling of DF-GGA-X  ScalDFX         ....  0.350000
   Scaling of DF-GGA-C  ScalDFC         ....  0.810000
   Scaling of DF-LDA-C  ScalLDAC        ....  1.000000
   Perturbative correction              ....  0.000000
 Long-range corrected/Screened/Range-Separated Hybrid DFT is turned on
   Amount of maximum screened exact exchange              ....  0.460000
   Range separation parameter mu (erf(mu*r12)/r12)        ....  0.330000
 RI-approximation to the Coulomb term is turned on
   Number of AuxJ basis functions       .... 4055
   RIJ-COSX (HFX calculated with COS-X)).... on


General Settings:
 Integral files         IntName         .... tddft
 Hartree-Fock type      HFTyp           .... RHF
 Total Charge           Charge          ....    0
 Multiplicity           Mult            ....    1
 Number of Electrons    NEL             ....  492
 Basis Dimension        Dim             .... 2491
 Nuclear Repulsion      ENuc            ....   9704.0141049545 Eh

Convergence Acceleration:
 AO-DIIS                CNVDIIS         .... on
   Start iteration      DIISMaxIt       ....    12
   Startup error        DIISStart       ....  0.200000
   # of expansion vecs  DIISMaxEq       ....     5
   Bias factor          DIISBfac        ....   1.050
   Max. coefficient     DIISMaxC        ....  10.000
 MO-DIIS                CNVKDIIS        .... off
 Trust-Rad. Augm. Hess. CNVTRAH         .... auto
   Auto Start mean grad. ratio tolernc. ....  1.125000
   Auto Start start iteration           ....    50
   Auto Start num. interpolation iter.  ....    10
   Max. Number of Micro iterations      ....    24
   Max. Number of Macro iterations      .... Maxiter - #DIIS iter
   Number of Davidson start vectors     ....     2
   Converg. threshold    (grad. norm)   ....   1.000e-05
   Grad. Scal. Fac. for Micro threshold ....   0.100
   Minimum threshold for Micro iter.    ....   1.000e-02
   NR start threshold (gradient norm)   ....   1.000e-04
   Initial trust radius                 ....   0.400
   Minimum AH scaling param. (alpha)    ....   1.000
   Maximum AH scaling param. (alpha)    .... 1000.000
   Quad. conv. algorithm                .... NR
   White noise on init. David. guess    .... on
   Maximum white noise                  ....   0.010
   Pseudo random numbers                .... off
   Inactive MOs                         .... canonical
   Orbital update algorithm             .... Taylor
   Preconditioner                       .... Diag
   Full preconditioner red. dimension   ....   250
 SOSCF                 CNVSOSCF           .... on
   Start iteration     SOSCFMaxIt         ....   150
   Startup grad/error  SOSCFStart         ....  0.003300
   Hessian update      SOSCFHessUp        .... L-BFGS
   Autom. constraints  SOSCFAutoConstrain .... off
 Level Shifting         CNVShift        .... on
   Level shift para.    LevelShift      ....    0.2500
   Turn off err/grad.   ShiftErr        ....    0.0010
 Zerner damping         CNVZerner       .... off
 Static damping         CNVDamp         .... on
   Fraction old density DampFac         ....    0.7000
   Max. Damping (<1)    DampMax         ....    0.9800
   Min. Damping (>=0)   DampMin         ....    0.0000
   Turn off err/grad.   DampErr         ....    0.1000

SCF Procedure:
 Maximum # iterations   MaxIter         ....   125
 SCF integral mode      SCFMode         .... Direct
   Integral package                     .... SHARK and LIBINT hybrid scheme
 Reset frequency        DirectResetFreq ....    20
 Integral Threshold     Thresh          ....  2.500e-11 Eh
 Primitive CutOff       TCut            ....  2.500e-12 Eh

Convergence Tolerance:
 Convergence Check Mode ConvCheckMode   .... Total+1el-Energy
 Convergence forced     ConvForced      .... 1
 Energy Change          TolE            ....  1.000e-08 Eh
 1-El. energy change                    ....  1.000e-05 Eh
 Orbital Gradient       TolG            ....  1.000e-05
 Orbital Rotation angle TolX            ....  1.000e-05
 DIIS Error             TolErr          ....  5.000e-07

------------------------------
INITIAL GUESS: MODEL POTENTIAL
------------------------------
Loading Hartree-Fock densities                     ... done
Calculating cut-offs                               ... done
Initializing the effective Hamiltonian             ... done
Setting up the integral package (SHARK)            ... done
Starting the Coulomb interaction                   ... done (  17.8 sec)
Making the grid                                    ... done (   3.3 sec)
Mapping shells                                     ... done
Starting the XC term evaluation                    ... done (   3.2 sec)
  promolecular density results
     # of electrons  =    491.948447275
     EX              =   -394.535206372
     EC              =    -16.547736374
     EX+EC           =   -411.082942746
Transforming the Hamiltonian                       ... done (   1.3 sec)
Diagonalizing the Hamiltonian                      ... done (   2.0 sec)
Back transforming the eigenvectors                 ... done (   0.9 sec)
Now organizing SCF variables                       ... done
                      ------------------
                      INITIAL GUESS DONE (  29.2 sec)
                      ------------------
             **** ENERGY FILE WAS UPDATED (tddft.en.tmp) ****
Finished Guess after  37.2 sec
Maximum memory used throughout the entire GUESS-calculation: 365.9 MB


           ************************************************************
           *        Program running with 4 parallel MPI-processes     *
           *              working on a common directory               *
           ************************************************************

-------------------------------------------------------------------------------------------
                                      ORCA LEAN-SCF
                              memory conserving SCF solver
-------------------------------------------------------------------------------------------

--------------------
CPCM SOLVATION MODEL
--------------------
CPCM parameters:
  Epsilon                                         ...       8.9990
  Refrac                                          ...       1.4242
  Rsolv                                           ...       1.3000
  Surface type                                    ... GAUSSIAN VDW
  Discretization scheme                           ... Constant charge density
    Threshold for H atoms                         ...       5.0000 (charges/Ang^2)
    Threshold for non-H atoms                     ...       5.0000 (charges/Ang^2)
  Epsilon function type                           ...         CPCM
Solvent:                                          ... DICHLOROMETHANE
Radii:
  Scheme                                          ... Element-dependent radii
  Radius for Mg used is    3.9231 Bohr (=   2.0760 Ang.)
  Radius for C  used is    3.8550 Bohr (=   2.0400 Ang.)
  Radius for N  used is    3.5149 Bohr (=   1.8600 Ang.)
  Radius for O  used is    3.4469 Bohr (=   1.8240 Ang.)
  Radius for H  used is    2.4944 Bohr (=   1.3200 Ang.)
Calculating surface                               ...        done! (  0.1s)
Cavity surface points                             ...        10985
Cavity Volume                                     ...    7536.7882
Cavity Surface-area                               ...    3697.7046
Calculating surface distance matrix               ...        done! (  2.5s)
Performing Cholesky decomposition & store         ...        done! ( 14.1s)
Overall time for CPCM initialization              ...                16.7s

----------------------------------------D-I-I-S--------------------------------------------
Iteration    Energy (Eh)           Delta-E    RMSDP     MaxDP     DIISErr   Damp  Time(sec)
-------------------------------------------------------------------------------------------
               ***  Starting incremental Fock matrix formation  ***
    1    -3008.9136088488921814     0.00e+00  1.67e-03  2.08e-01  2.69e-01  0.700 822.5
    2    -3009.6507159695211158    -7.37e-01  1.53e-03  2.35e-01  1.20e-01  0.700 344.4
                               ***Turning on AO-DIIS***
    3    -3009.9971799465256481    -3.46e-01  7.96e-04  1.12e-01  4.73e-02  0.700 334.5
    4    -3010.2021038778511866    -2.05e-01  1.58e-03  1.89e-01  3.20e-02  0.000 335.0
    5    -3010.6423367595853051    -4.40e-01  1.84e-04  3.13e-02  5.63e-03  0.000 353.7
    6    -3010.6435566041382117    -1.22e-03  6.67e-05  8.23e-03  3.53e-03  0.000 287.4
                              *** Initializing SOSCF ***
---------------------------------------S-O-S-C-F--------------------------------------
Iteration    Energy (Eh)           Delta-E    RMSDP     MaxDP     MaxGrad    Time(sec)
--------------------------------------------------------------------------------------
    7    -3010.6437463242527883    -1.90e-04  3.18e-05  3.69e-03  7.08e-04   244.2
               *** Restarting incremental Fock matrix formation ***
    8    -3010.6437917003586335    -4.54e-05  9.02e-05  6.64e-03  7.49e-04   958.7
    9    -3010.6438198132145772    -2.81e-05  6.63e-05  4.35e-03  3.09e-04   632.9
   10    -3010.6438307123771665    -1.09e-05  4.73e-05  3.51e-03  2.25e-04   628.6
   11    -3010.6438353212597576    -4.61e-06  2.54e-05  1.69e-03  1.55e-04   560.0
   12    -3010.6438365720368893    -1.25e-06  1.15e-05  1.03e-03  5.48e-05   525.1
   13    -3010.6438371696785907    -5.98e-07  1.19e-05  1.31e-03  2.27e-05   420.2
   14    -3010.6438371800613822    -1.04e-08  5.06e-06  5.13e-04  1.44e-05   430.5
   15    -3010.6438373000073625    -1.20e-07  7.81e-06  9.34e-04  6.84e-06   339.4
   16    -3010.6438373225573741    -2.26e-08  6.16e-06  7.46e-04  2.99e-06   347.9
   17    -3010.6438373181354109     4.42e-09  8.99e-06  1.65e-03  1.88e-06   312.5
                 **** Energy Check signals convergence ****

               *****************************************************
               *                     SUCCESS                       *
               *           SCF CONVERGED AFTER  17 CYCLES          *
               *****************************************************

Recomputing exchange energy using gridx3       ... done ( 1567.152 sec)
Old exchange energy                            :   -115.196625413 Eh
New exchange energy                            :   -115.196615702 Eh
Exchange energy change after final integration :      0.000009711 Eh
Total energy after final integration           :  -3010.643827606 Eh
             **** ENERGY FILE WAS UPDATED (tddft.en.tmp) ****

----------------
TOTAL SCF ENERGY
----------------

Total Energy       :      -3010.64382760599756 Eh          -81923.78347 eV

Components:
Nuclear Repulsion  :       9704.01410495454184 Eh          264059.64833 eV
Electronic Energy  :     -12714.61304438284969 Eh         -345982.21033 eV
One Electron Energy:     -23430.45516530283567 Eh         -637575.09874 eV
Two Electron Energy:      10715.84212091998597 Eh          291592.88841 eV
CPCM Dielectric    :         -0.04489788884964 Eh              -1.22173 eV

Virial components:
Potential Energy   :      -6007.47943779564048 Eh         -163471.82625 eV
Kinetic Energy     :       2996.83561018964247 Eh           81548.04278 eV
Virial Ratio       :          2.00460759921879

DFT components:
N(Alpha)           :      245.999983441940 electrons
N(Beta)            :      245.999983441940 electrons
N(Total)           :      491.999966883881 electrons
E(XC)              :     -306.330488492990 Eh       

CPCM Solvation Model Properties:
Surface-charge          :         -0.07433978419836
Corrected charge        :          0.00000000000000
Outlying charge corr.   :          0.00015081004450 Eh               0.00410 eV
Free-energy (cav+disp)  :  This term is not implemented in the current solvation scheme

---------------
SCF CONVERGENCE
---------------

  Last Energy change         ...   -4.4220e-09  Tolerance :   1.0000e-08
  Last MAX-Density change    ...    1.6522e-03  Tolerance :   1.0000e-07
  Last RMS-Density change    ...    8.9913e-06  Tolerance :   5.0000e-09
  Last DIIS Error            ...    7.0768e-04  Tolerance :   5.0000e-07
  Last Orbital Gradient      ...    1.8800e-06  Tolerance :   1.0000e-05
  Last Orbital Rotation      ...    2.5801e-05  Tolerance :   1.0000e-05


----------------
ORBITAL ENERGIES
----------------

  NO   OCC          E(Eh)            E(eV) 
   0   2.0000     -46.845837     -1274.7400 
   1   2.0000     -19.252839      -523.8964 
   2   2.0000     -19.244316      -523.6645 
   3   2.0000     -19.197618      -522.3938 
   4   2.0000     -19.196186      -522.3548 
   5   2.0000     -19.191418      -522.2250 
   6   2.0000     -19.187387      -522.1154 
   7   2.0000     -14.404919      -391.9778 
   8   2.0000     -14.399773      -391.8377 
   9   2.0000     -14.380943      -391.3254 
  10   2.0000     -14.377167      -391.2226 
  11   2.0000     -10.388112      -282.6749 
  12   2.0000     -10.380586      -282.4701 
  13   2.0000     -10.351363      -281.6749 
  14   2.0000     -10.343864      -281.4709 
  15   2.0000     -10.298598      -280.2391 
  16   2.0000     -10.293904      -280.1114 
  17   2.0000     -10.292603      -280.0760 
  18   2.0000     -10.289814      -280.0001 
  19   2.0000     -10.289654      -279.9957 
  20   2.0000     -10.289588      -279.9939 
  21   2.0000     -10.287147      -279.9275 
  22   2.0000     -10.285100      -279.8718 
  23   2.0000     -10.279372      -279.7159 
  24   2.0000     -10.277979      -279.6780 
  25   2.0000     -10.273040      -279.5436 
  26   2.0000     -10.272404      -279.5263 
  27   2.0000     -10.265190      -279.3300 
  28   2.0000     -10.260679      -279.2073 
  29   2.0000     -10.256295      -279.0880 
  30   2.0000     -10.255999      -279.0799 
  31   2.0000     -10.255814      -279.0749 
  32   2.0000     -10.255487      -279.0660 
  33   2.0000     -10.254104      -279.0284 
  34   2.0000     -10.251099      -278.9466 
  35   2.0000     -10.249781      -278.9107 
  36   2.0000     -10.248936      -278.8877 
  37   2.0000     -10.247614      -278.8517 
  38   2.0000     -10.245305      -278.7889 
  39   2.0000     -10.244519      -278.7675 
  40   2.0000     -10.241344      -278.6811 
  41   2.0000     -10.241308      -278.6802 
  42   2.0000     -10.240030      -278.6454 
  43   2.0000     -10.239345      -278.6267 
  44   2.0000     -10.239089      -278.6198 
  45   2.0000     -10.237120      -278.5662 
  46   2.0000     -10.236284      -278.5435 
  47   2.0000     -10.236155      -278.5399 
  48   2.0000     -10.234962      -278.5075 
  49   2.0000     -10.234957      -278.5073 
  50   2.0000     -10.234102      -278.4841 
  51   2.0000     -10.232975      -278.4534 
  52   2.0000     -10.232850      -278.4500 
  53   2.0000     -10.232144      -278.4308 
  54   2.0000     -10.227817      -278.3130 
  55   2.0000     -10.226473      -278.2765 
  56   2.0000     -10.225910      -278.2612 
  57   2.0000     -10.225678      -278.2548 
  58   2.0000     -10.225638      -278.2538 
  59   2.0000     -10.225434      -278.2482 
  60   2.0000     -10.225315      -278.2450 
  61   2.0000     -10.225208      -278.2420 
  62   2.0000     -10.221643      -278.1450 
  63   2.0000     -10.221405      -278.1386 
  64   2.0000     -10.221315      -278.1361 
  65   2.0000     -10.220439      -278.1123 
  66   2.0000      -3.133793       -85.2748 
  67   2.0000      -1.880872       -51.1811 
  68   2.0000      -1.876146       -51.0525 
  69   2.0000      -1.875269       -51.0287 
  70   2.0000      -1.200420       -32.6651 
  71   2.0000      -1.191001       -32.4088 
  72   2.0000      -1.135824       -30.9073 
  73   2.0000      -1.127420       -30.6786 
  74   2.0000      -1.111449       -30.2441 
  75   2.0000      -1.103778       -30.0353 
  76   2.0000      -1.055638       -28.7254 
  77   2.0000      -1.046333       -28.4722 
  78   2.0000      -1.045552       -28.4509 
  79   2.0000      -1.035942       -28.1894 
  80   2.0000      -0.936084       -25.4721 
  81   2.0000      -0.913096       -24.8466 
  82   2.0000      -0.904404       -24.6101 
  83   2.0000      -0.902017       -24.5451 
  84   2.0000      -0.898266       -24.4431 
  85   2.0000      -0.894017       -24.3274 
  86   2.0000      -0.889220       -24.1969 
  87   2.0000      -0.887130       -24.1400 
  88   2.0000      -0.882819       -24.0227 
  89   2.0000      -0.881893       -23.9975 
  90   2.0000      -0.875930       -23.8353 
  91   2.0000      -0.863626       -23.5005 
  92   2.0000      -0.851369       -23.1669 
  93   2.0000      -0.845855       -23.0169 
  94   2.0000      -0.839620       -22.8472 
  95   2.0000      -0.830704       -22.6046 
  96   2.0000      -0.824849       -22.4453 
  97   2.0000      -0.822554       -22.3828 
  98   2.0000      -0.815327       -22.1862 
  99   2.0000      -0.811064       -22.0702 
 100   2.0000      -0.799695       -21.7608 
 101   2.0000      -0.792801       -21.5732 
 102   2.0000      -0.784059       -21.3353 
 103   2.0000      -0.778139       -21.1743 
 104   2.0000      -0.768117       -20.9015 
 105   2.0000      -0.761735       -20.7279 
 106   2.0000      -0.756502       -20.5855 
 107   2.0000      -0.754624       -20.5344 
 108   2.0000      -0.751648       -20.4534 
 109   2.0000      -0.745980       -20.2991 
 110   2.0000      -0.738342       -20.0913 
 111   2.0000      -0.733355       -19.9556 
 112   2.0000      -0.722450       -19.6589 
 113   2.0000      -0.710846       -19.3431 
 114   2.0000      -0.697260       -18.9734 
 115   2.0000      -0.694741       -18.9049 
 116   2.0000      -0.692064       -18.8320 
 117   2.0000      -0.680982       -18.5305 
 118   2.0000      -0.667279       -18.1576 
 119   2.0000      -0.656997       -17.8778 
 120   2.0000      -0.654454       -17.8086 
 121   2.0000      -0.649705       -17.6794 
 122   2.0000      -0.644530       -17.5385 
 123   2.0000      -0.643938       -17.5224 
 124   2.0000      -0.636451       -17.3187 
 125   2.0000      -0.632466       -17.2103 
 126   2.0000      -0.629063       -17.1177 
 127   2.0000      -0.627515       -17.0756 
 128   2.0000      -0.618670       -16.8349 
 129   2.0000      -0.608204       -16.5501 
 130   2.0000      -0.602382       -16.3916 
 131   2.0000      -0.597116       -16.2484 
 132   2.0000      -0.594607       -16.1801 
 133   2.0000      -0.591674       -16.1003 
 134   2.0000      -0.585785       -15.9400 
 135   2.0000      -0.581930       -15.8351 
 136   2.0000      -0.580480       -15.7957 
 137   2.0000      -0.569140       -15.4871 
 138   2.0000      -0.561986       -15.2924 
 139   2.0000      -0.560443       -15.2504 
 140   2.0000      -0.559427       -15.2228 
 141   2.0000      -0.556709       -15.1488 
 142   2.0000      -0.554021       -15.0757 
 143   2.0000      -0.548721       -14.9315 
 144   2.0000      -0.547138       -14.8884 
 145   2.0000      -0.545365       -14.8401 
 146   2.0000      -0.543434       -14.7876 
 147   2.0000      -0.539570       -14.6824 
 148   2.0000      -0.534870       -14.5545 
 149   2.0000      -0.530255       -14.4290 
 150   2.0000      -0.527716       -14.3599 
 151   2.0000      -0.524870       -14.2824 
 152   2.0000      -0.523950       -14.2574 
 153   2.0000      -0.521010       -14.1774 
 154   2.0000      -0.517631       -14.0855 
 155   2.0000      -0.516267       -14.0483 
 156   2.0000      -0.514388       -13.9972 
 157   2.0000      -0.508654       -13.8412 
 158   2.0000      -0.508143       -13.8273 
 159   2.0000      -0.506462       -13.7815 
 160   2.0000      -0.504594       -13.7307 
 161   2.0000      -0.501778       -13.6541 
 162   2.0000      -0.501491       -13.6463 
 163   2.0000      -0.498382       -13.5617 
 164   2.0000      -0.497849       -13.5472 
 165   2.0000      -0.495126       -13.4731 
 166   2.0000      -0.492010       -13.3883 
 167   2.0000      -0.489307       -13.3147 
 168   2.0000      -0.488150       -13.2832 
 169   2.0000      -0.483933       -13.1685 
 170   2.0000      -0.482360       -13.1257 
 171   2.0000      -0.481607       -13.1052 
 172   2.0000      -0.480955       -13.0875 
 173   2.0000      -0.478924       -13.0322 
 174   2.0000      -0.476851       -12.9758 
 175   2.0000      -0.473109       -12.8740 
 176   2.0000      -0.472169       -12.8484 
 177   2.0000      -0.467052       -12.7091 
 178   2.0000      -0.465215       -12.6592 
 179   2.0000      -0.463269       -12.6062 
 180   2.0000      -0.462712       -12.5910 
 181   2.0000      -0.460344       -12.5266 
 182   2.0000      -0.459186       -12.4951 
 183   2.0000      -0.458105       -12.4657 
 184   2.0000      -0.454870       -12.3777 
 185   2.0000      -0.451998       -12.2995 
 186   2.0000      -0.450728       -12.2649 
 187   2.0000      -0.449046       -12.2192 
 188   2.0000      -0.447083       -12.1658 
 189   2.0000      -0.445549       -12.1240 
 190   2.0000      -0.443006       -12.0548 
 191   2.0000      -0.441810       -12.0223 
 192   2.0000      -0.441648       -12.0179 
 193   2.0000      -0.439810       -11.9678 
 194   2.0000      -0.438409       -11.9297 
 195   2.0000      -0.438167       -11.9231 
 196   2.0000      -0.436384       -11.8746 
 197   2.0000      -0.433444       -11.7946 
 198   2.0000      -0.432007       -11.7555 
 199   2.0000      -0.430545       -11.7157 
 200   2.0000      -0.428076       -11.6485 
 201   2.0000      -0.426420       -11.6035 
 202   2.0000      -0.423843       -11.5334 
 203   2.0000      -0.422017       -11.4837 
 204   2.0000      -0.420481       -11.4419 
 205   2.0000      -0.418158       -11.3787 
 206   2.0000      -0.417117       -11.3503 
 207   2.0000      -0.413974       -11.2648 
 208   2.0000      -0.412645       -11.2286 
 209   2.0000      -0.410138       -11.1604 
 210   2.0000      -0.406372       -11.0580 
 211   2.0000      -0.403841       -10.9891 
 212   2.0000      -0.403263       -10.9733 
 213   2.0000      -0.402869       -10.9626 
 214   2.0000      -0.400047       -10.8858 
 215   2.0000      -0.396371       -10.7858 
 216   2.0000      -0.395300       -10.7567 
 217   2.0000      -0.390641       -10.6299 
 218   2.0000      -0.390406       -10.6235 
 219   2.0000      -0.383330       -10.4310 
 220   2.0000      -0.382876       -10.4186 
 221   2.0000      -0.381513       -10.3815 
 222   2.0000      -0.381203       -10.3731 
 223   2.0000      -0.379713       -10.3325 
 224   2.0000      -0.376078       -10.2336 
 225   2.0000      -0.374335       -10.1862 
 226   2.0000      -0.372765       -10.1434 
 227   2.0000      -0.371955       -10.1214 
 228   2.0000      -0.371356       -10.1051 
 229   2.0000      -0.369955       -10.0670 
 230   2.0000      -0.367629       -10.0037 
 231   2.0000      -0.364768        -9.9258 
 232   2.0000      -0.362153        -9.8547 
 233   2.0000      -0.360785        -9.8175 
 234   2.0000      -0.353956        -9.6316 
 235   2.0000      -0.345465        -9.4006 
 236   2.0000      -0.342796        -9.3280 
 237   2.0000      -0.335590        -9.1319 
 238   2.0000      -0.325282        -8.8514 
 239   2.0000      -0.324049        -8.8178 
 240   2.0000      -0.317780        -8.6472 
 241   2.0000      -0.310394        -8.4462 
 242   2.0000      -0.305111        -8.3025 
 243   2.0000      -0.304030        -8.2731 
 244   2.0000      -0.244180        -6.6445 
 245   2.0000      -0.211823        -5.7640 
 246   0.0000      -0.088109        -2.3976 
 247   0.0000      -0.016512        -0.4493 
 248   0.0000      -0.001359        -0.0370 
 249   0.0000       0.016163         0.4398 
 250   0.0000       0.034900         0.9497 
 251   0.0000       0.045367         1.2345 
 252   0.0000       0.046009         1.2520 
 253   0.0000       0.054676         1.4878 
 254   0.0000       0.055949         1.5225 
 255   0.0000       0.064707         1.7608 
 256   0.0000       0.067086         1.8255 
*Only the first 10 virtual orbitals were printed.

                    ********************************
                    * MULLIKEN POPULATION ANALYSIS *
                    ********************************

-----------------------
MULLIKEN ATOMIC CHARGES
-----------------------
   0 Mg:    0.701725
   1 C :   -0.122928
   2 C :   -0.350156
   3 C :   -0.338028
   4 C :   -0.313946
   5 N :   -0.388317
   6 C :    0.140608
   7 C :    0.074679
   8 C :   -0.041327
   9 C :    0.136291
  10 C :   -0.433698
  11 C :   -0.310540
  12 C :   -0.240472
  13 C :    0.322212
  14 O :   -0.380541
  15 O :   -0.273101
  16 N :   -0.372743
  17 C :    0.258587
  18 C :   -0.009399
  19 C :   -0.082701
  20 C :    0.197123
  21 C :   -0.419564
  22 C :    0.248862
  23 O :   -0.380116
  24 C :   -0.400775
  25 N :   -0.341247
  26 C :    0.193690
  27 C :   -0.052331
  28 C :    0.041012
  29 C :    0.105642
  30 C :   -0.430584
  31 C :   -0.219250
  32 C :   -0.416934
  33 N :   -0.407176
  34 C :    0.221558
  35 C :   -0.085288
  36 C :   -0.026565
  37 C :    0.209348
  38 C :   -0.440913
  39 C :    0.079752
  40 O :   -0.325797
  41 C :    0.011663
  42 C :    0.290207
  43 O :   -0.362386
  44 O :   -0.263967
  45 C :   -0.233380
  46 C :   -0.093651
  47 C :   -0.222975
  48 C :    0.059248
  49 C :   -0.406730
  50 C :   -0.193249
  51 C :   -0.276224
  52 C :   -0.225162
  53 C :    0.031926
  54 C :   -0.438191
  55 C :   -0.220668
  56 C :   -0.250881
  57 C :   -0.219838
  58 C :    0.033027
  59 C :   -0.438266
  60 C :   -0.219482
  61 C :   -0.250810
  62 C :   -0.214440
  63 C :    0.014106
  64 C :   -0.415126
  65 C :   -0.395432
  66 H :    0.146957
  67 H :    0.169768
  68 H :    0.166821
  69 H :    0.128060
  70 H :    0.126425
  71 H :    0.135066
  72 H :    0.139556
  73 H :    0.138292
  74 H :    0.139879
  75 H :    0.143829
  76 H :    0.159576
  77 H :    0.147851
  78 H :    0.157317
  79 H :    0.163370
  80 H :    0.146701
  81 H :    0.145503
  82 H :    0.151473
  83 H :    0.154941
  84 H :    0.123692
  85 H :    0.109688
  86 H :    0.136151
  87 H :    0.134297
  88 H :    0.135945
  89 H :    0.116967
  90 H :    0.119683
  91 H :    0.135710
  92 H :    0.130849
  93 H :    0.129888
  94 H :    0.145111
  95 H :    0.153536
  96 H :    0.149846
  97 H :    0.146347
  98 H :    0.156063
  99 H :    0.148137
 100 H :    0.150567
 101 H :    0.145478
 102 H :    0.165970
 103 H :    0.139211
 104 H :    0.139001
 105 H :    0.135029
 106 H :    0.148153
 107 H :    0.122527
 108 H :    0.122110
 109 H :    0.128211
 110 H :    0.114544
 111 H :    0.110879
 112 H :    0.106190
 113 H :    0.077094
 114 H :    0.132491
 115 H :    0.117977
 116 H :    0.131460
 117 H :    0.107644
 118 H :    0.104081
 119 H :    0.118272
 120 H :    0.101179
 121 H :    0.107079
 122 H :    0.103509
 123 H :    0.075193
 124 H :    0.132183
 125 H :    0.117213
 126 H :    0.131472
 127 H :    0.107017
 128 H :    0.103365
 129 H :    0.120057
 130 H :    0.100169
 131 H :    0.105271
 132 H :    0.103977
 133 H :    0.076682
 134 H :    0.126650
 135 H :    0.116730
 136 H :    0.129495
 137 H :    0.126134
 138 H :    0.124009
 139 H :    0.116466
Sum of atomic charges:   -0.0000000

--------------------------------
MULLIKEN REDUCED ORBITAL CHARGES
--------------------------------
  0 Mgs       :     4.593766  s :     4.593766
      pz      :     2.086072  p :     6.450312
      px      :     2.198385
      py      :     2.165856
      dz2     :     0.027954  d :     0.254197
      dxz     :     0.038890
      dyz     :     0.018617
      dx2y2   :     0.061676
      dxy     :     0.107061

  1 C s       :     3.396094  s :     3.396094
      pz      :     1.001891  p :     2.607727
      px      :     0.856157
      py      :     0.749678
      dz2     :     0.012171  d :     0.109235
      dxz     :     0.016786
      dyz     :     0.021176
      dx2y2   :     0.033941
      dxy     :     0.025160
      f0      :     0.000985  f :     0.009872
      f+1     :     0.000951
      f-1     :     0.001318
      f+2     :     0.001279
      f-2     :     0.000884
      f+3     :     0.002028
      f-3     :     0.002427

  2 C s       :     3.254055  s :     3.254055
      pz      :     1.046859  p :     3.026373
      px      :     0.964027
      py      :     1.015487
      dz2     :     0.004375  d :     0.062648
      dxz     :     0.023004
      dyz     :     0.006676
      dx2y2   :     0.013461
      dxy     :     0.015133
      f0      :     0.001115  f :     0.007080
      f+1     :     0.000611
      f-1     :     0.000601
      f+2     :     0.001034
      f-2     :     0.000728
      f+3     :     0.001336
      f-3     :     0.001655

  3 C s       :     3.271186  s :     3.271186
      pz      :     1.051630  p :     2.997531
      px      :     1.044762
      py      :     0.901139
      dz2     :     0.009333  d :     0.062283
      dxz     :     0.006107
      dyz     :     0.016051
      dx2y2   :     0.017582
      dxy     :     0.013209
      f0      :     0.000755  f :     0.007027
      f+1     :     0.000629
      f-1     :     0.001329
      f+2     :     0.000658
      f-2     :     0.000768
      f+3     :     0.001551
      f-3     :     0.001337

  4 C s       :     3.270562  s :     3.270562
      pz      :     1.048802  p :     2.968916
      px      :     0.902655
      py      :     1.017459
      dz2     :     0.003894  d :     0.067371
      dxz     :     0.023704
      dyz     :     0.007402
      dx2y2   :     0.016258
      dxy     :     0.016113
      f0      :     0.001167  f :     0.007098
      f+1     :     0.000586
      f-1     :     0.000620
      f+2     :     0.000978
      f-2     :     0.000758
      f+3     :     0.001313
      f-3     :     0.001677

  5 N s       :     3.726031  s :     3.726031
      pz      :     1.264808  p :     3.601079
      px      :     1.062745
      py      :     1.273527
      dz2     :     0.006417  d :     0.057713
      dxz     :     0.014046
      dyz     :     0.006673
      dx2y2   :     0.014842
      dxy     :     0.015734
      f0      :     0.000435  f :     0.003494
      f+1     :     0.000349
      f-1     :     0.000456
      f+2     :     0.000516
      f-2     :     0.000304
      f+3     :     0.000602
      f-3     :     0.000832

  6 C s       :     3.241082  s :     3.241082
      pz      :     0.904533  p :     2.452131
      px      :     0.711955
      py      :     0.835642
      dz2     :     0.010051  d :     0.152140
      dxz     :     0.037409
      dyz     :     0.020792
      dx2y2   :     0.038725
      dxy     :     0.045163
      f0      :     0.001498  f :     0.014039
      f+1     :     0.001284
      f-1     :     0.001223
      f+2     :     0.002206
      f-2     :     0.000995
      f+3     :     0.003011
      f-3     :     0.003822

  7 C s       :     3.131134  s :     3.131134
      pz      :     0.916477  p :     2.669918
      px      :     0.896025
      py      :     0.857415
      dz2     :     0.020229  d :     0.116334
      dxz     :     0.026719
      dyz     :     0.018328
      dx2y2   :     0.031296
      dxy     :     0.019762
      f0      :     0.000770  f :     0.007934
      f+1     :     0.001139
      f-1     :     0.001041
      f+2     :     0.001757
      f-2     :     0.000901
      f+3     :     0.001350
      f-3     :     0.000977

  8 C s       :     3.183036  s :     3.183036
      pz      :     0.932014  p :     2.729160
      px      :     0.888446
      py      :     0.908700
      dz2     :     0.019068  d :     0.121032
      dxz     :     0.034530
      dyz     :     0.026838
      dx2y2   :     0.020055
      dxy     :     0.020542
      f0      :     0.001488  f :     0.008099
      f+1     :     0.001681
      f-1     :     0.001269
      f+2     :     0.000572
      f-2     :     0.000731
      f+3     :     0.001273
      f-3     :     0.001085

  9 C s       :     3.198033  s :     3.198033
      pz      :     0.842675  p :     2.500366
      px      :     0.878301
      py      :     0.779390
      dz2     :     0.015140  d :     0.151104
      dxz     :     0.037434
      dyz     :     0.019339
      dx2y2   :     0.039645
      dxy     :     0.039546
      f0      :     0.001321  f :     0.014206
      f+1     :     0.001145
      f-1     :     0.001740
      f+2     :     0.001846
      f-2     :     0.001671
      f+3     :     0.002228
      f-3     :     0.004255

 10 C s       :     3.333199  s :     3.333199
      pz      :     0.893016  p :     3.046893
      px      :     1.078559
      py      :     1.075317
      dz2     :     0.006524  d :     0.050014
      dxz     :     0.016119
      dyz     :     0.017208
      dx2y2   :     0.004661
      dxy     :     0.005502
      f0      :     0.001280  f :     0.003592
      f+1     :     0.000790
      f-1     :     0.000850
      f+2     :    -0.000070
      f-2     :    -0.000063
      f+3     :     0.000452
      f-3     :     0.000353

 11 C s       :     3.280858  s :     3.280858
      pz      :     0.905566  p :     2.938651
      px      :     1.001912
      py      :     1.031174
      dz2     :     0.023147  d :     0.085376
      dxz     :     0.018115
      dyz     :     0.016353
      dx2y2   :     0.018308
      dxy     :     0.009453
      f0      :     0.000982  f :     0.005656
      f+1     :     0.000934
      f-1     :     0.000641
      f+2     :     0.001355
      f-2     :     0.001069
      f+3     :     0.000144
      f-3     :     0.000529

 12 C s       :     3.197307  s :     3.197307
      pz      :     0.918652  p :     2.962071
      px      :     0.996469
      py      :     1.046951
      dz2     :     0.020458  d :     0.075658
      dxz     :     0.010574
      dyz     :     0.020049
      dx2y2   :     0.014714
      dxy     :     0.009863
      f0      :     0.000796  f :     0.005435
      f+1     :     0.001123
      f-1     :     0.000596
      f+2     :     0.001148
      f-2     :     0.001043
      f+3     :     0.000144
      f-3     :     0.000585

 13 C s       :     3.103013  s :     3.103013
      pz      :     0.799317  p :     2.277550
      px      :     0.741522
      py      :     0.736711
      dz2     :     0.042785  d :     0.271767
      dxz     :     0.090274
      dyz     :     0.017529
      dx2y2   :     0.046620
      dxy     :     0.074559
      f0      :     0.003002  f :     0.025459
      f+1     :     0.005257
      f-1     :     0.001264
      f+2     :     0.004923
      f-2     :     0.002964
      f+3     :     0.003678
      f-3     :     0.004370

 14 O s       :     3.785553  s :     3.785553
      pz      :     1.674260  p :     4.564588
      px      :     1.362678
      py      :     1.527650
      dz2     :     0.003092  d :     0.028604
      dxz     :     0.008342
      dyz     :     0.000526
      dx2y2   :     0.007159
      dxy     :     0.009485
      f0      :     0.000214  f :     0.001796
      f+1     :     0.000304
      f-1     :     0.000039
      f+2     :     0.000322
      f-2     :     0.000070
      f+3     :     0.000336
      f-3     :     0.000511

 15 O s       :     3.758302  s :     3.758302
      pz      :     1.347565  p :     4.475607
      px      :     1.545687
      py      :     1.582354
      dz2     :     0.006662  d :     0.037218
      dxz     :     0.012023
      dyz     :     0.005697
      dx2y2   :     0.005969
      dxy     :     0.006868
      f0      :     0.000251  f :     0.001974
      f+1     :     0.000318
      f-1     :     0.000395
      f+2     :     0.000343
      f-2     :     0.000364
      f+3     :     0.000158
      f-3     :     0.000144

 16 N s       :     3.679242  s :     3.679242
      pz      :     1.347996  p :     3.635269
      px      :     1.192807
      py      :     1.094466
      dz2     :     0.006568  d :     0.054712
      dxz     :     0.008077
      dyz     :     0.010269
      dx2y2   :     0.015154
      dxy     :     0.014645
      f0      :     0.000470  f :     0.003520
      f+1     :     0.000289
      f-1     :     0.000585
      f+2     :     0.000428
      f-2     :     0.000417
      f+3     :     0.000804
      f-3     :     0.000527

 17 C s       :     3.140076  s :     3.140076
      pz      :     0.892402  p :     2.426904
      px      :     0.829012
      py      :     0.705490
      dz2     :     0.016262  d :     0.159902
      dxz     :     0.029586
      dyz     :     0.028290
      dx2y2   :     0.038549
      dxy     :     0.047216
      f0      :     0.001402  f :     0.014532
      f+1     :     0.000717
      f-1     :     0.002160
      f+2     :     0.002216
      f-2     :     0.001428
      f+3     :     0.003572
      f-3     :     0.003036

 18 C s       :     3.234707  s :     3.234707
      pz      :     0.894169  p :     2.624938
      px      :     0.864517
      py      :     0.866252
      dz2     :     0.013839  d :     0.139876
      dxz     :     0.025864
      dyz     :     0.022226
      dx2y2   :     0.037544
      dxy     :     0.040402
      f0      :     0.001036  f :     0.009879
      f+1     :     0.000654
      f-1     :     0.001394
      f+2     :     0.001355
      f-2     :     0.001001
      f+3     :     0.001526
      f-3     :     0.002913

 19 C s       :     3.230001  s :     3.230001
      pz      :     1.033381  p :     2.733777
      px      :     0.811530
      py      :     0.888866
      dz2     :     0.012424  d :     0.109057
      dxz     :     0.014795
      dyz     :     0.019175
      dx2y2   :     0.037175
      dxy     :     0.025486
      f0      :     0.001086  f :     0.009867
      f+1     :     0.001061
      f-1     :     0.001095
      f+2     :     0.000870
      f-2     :     0.001215
      f+3     :     0.001988
      f-3     :     0.002553

 20 C s       :     3.172929  s :     3.172929
      pz      :     0.889560  p :     2.449241
      px      :     0.725924
      py      :     0.833757
      dz2     :     0.014033  d :     0.166060
      dxz     :     0.036357
      dyz     :     0.026279
      dx2y2   :     0.047670
      dxy     :     0.041721
      f0      :     0.001420  f :     0.014648
      f+1     :     0.001238
      f-1     :     0.001623
      f+2     :     0.001268
      f-2     :     0.002199
      f+3     :     0.004466
      f-3     :     0.002434

 21 C s       :     3.376928  s :     3.376928
      pz      :     1.052580  p :     2.993031
      px      :     1.046464
      py      :     0.893987
      dz2     :     0.008389  d :     0.046254
      dxz     :     0.008173
      dyz     :     0.008794
      dx2y2   :     0.008835
      dxy     :     0.012064
      f0      :     0.000408  f :     0.003352
      f+1     :     0.000648
      f-1     :     0.000304
      f+2     :     0.000183
      f-2     :     0.000471
      f+3     :     0.000576
      f-3     :     0.000761

 22 C s       :     3.162190  s :     3.162190
      pz      :     0.728935  p :     2.360922
      px      :     0.866214
      py      :     0.765773
      dz2     :     0.034678  d :     0.210070
      dxz     :     0.042654
      dyz     :     0.026361
      dx2y2   :     0.050327
      dxy     :     0.056051
      f0      :     0.001312  f :     0.017956
      f+1     :     0.001215
      f-1     :     0.003229
      f+2     :     0.003275
      f-2     :     0.002499
      f+3     :     0.002767
      f-3     :     0.003660

 23 O s       :     3.802548  s :     3.802548
      pz      :     1.411811  p :     4.547387
      px      :     1.767141
      py      :     1.368434
      dz2     :     0.006208  d :     0.028481
      dxz     :     0.003678
      dyz     :     0.006437
      dx2y2   :     0.006434
      dxy     :     0.005725
      f0      :     0.000097  f :     0.001700
      f+1     :     0.000134
      f-1     :     0.000363
      f+2     :     0.000262
      f-2     :     0.000287
      f+3     :     0.000248
      f-3     :     0.000310

 24 C s       :     3.293916  s :     3.293916
      pz      :     1.019517  p :     3.064997
      px      :     1.012133
      py      :     1.033346
      dz2     :     0.009053  d :     0.038547
      dxz     :     0.005981
      dyz     :     0.006579
      dx2y2   :     0.009747
      dxy     :     0.007188
      f0      :     0.000470  f :     0.003315
      f+1     :     0.000560
      f-1     :     0.000307
      f+2     :     0.000471
      f-2     :     0.000438
      f+3     :     0.000213
      f-3     :     0.000856

 25 N s       :     3.695438  s :     3.695438
      pz      :     1.262399  p :     3.585479
      px      :     1.071775
      py      :     1.251306
      dz2     :     0.005875  d :     0.056862
      dxz     :     0.013544
      dyz     :     0.006549
      dx2y2   :     0.015062
      dxy     :     0.015831
      f0      :     0.000456  f :     0.003468
      f+1     :     0.000321
      f-1     :     0.000438
      f+2     :     0.000504
      f-2     :     0.000293
      f+3     :     0.000586
      f-3     :     0.000870

 26 C s       :     3.187352  s :     3.187352
      pz      :     0.875736  p :     2.451926
      px      :     0.711363
      py      :     0.864828
      dz2     :     0.009599  d :     0.152841
      dxz     :     0.039341
      dyz     :     0.019081
      dx2y2   :     0.040249
      dxy     :     0.044570
      f0      :     0.001539  f :     0.014191
      f+1     :     0.001255
      f-1     :     0.001056
      f+2     :     0.002216
      f-2     :     0.000990
      f+3     :     0.003134
      f-3     :     0.004002

 27 C s       :     3.189283  s :     3.189283
      pz      :     0.946634  p :     2.734302
      px      :     0.916706
      py      :     0.870962
      dz2     :     0.021830  d :     0.120661
      dxz     :     0.030738
      dyz     :     0.018319
      dx2y2   :     0.029200
      dxy     :     0.020575
      f0      :     0.000870  f :     0.008085
      f+1     :     0.001193
      f-1     :     0.000980
      f+2     :     0.001675
      f-2     :     0.000950
      f+3     :     0.001419
      f-3     :     0.000998

 28 C s       :     3.126197  s :     3.126197
      pz      :     0.927038  p :     2.706367
      px      :     0.885086
      py      :     0.894242
      dz2     :     0.017848  d :     0.118456
      dxz     :     0.034828
      dyz     :     0.025029
      dx2y2   :     0.019824
      dxy     :     0.020928
      f0      :     0.001541  f :     0.007969
      f+1     :     0.001551
      f-1     :     0.001148
      f+2     :     0.000591
      f-2     :     0.000763
      f+3     :     0.001276
      f-3     :     0.001099

 29 C s       :     3.221152  s :     3.221152
      pz      :     0.873714  p :     2.509658
      px      :     0.845460
      py      :     0.790484
      dz2     :     0.013749  d :     0.149440
      dxz     :     0.037205
      dyz     :     0.019960
      dx2y2   :     0.039637
      dxy     :     0.038889
      f0      :     0.001394  f :     0.014107
      f+1     :     0.001070
      f-1     :     0.001697
      f+2     :     0.001782
      f-2     :     0.001664
      f+3     :     0.002251
      f-3     :     0.004248

 30 C s       :     3.331262  s :     3.331262
      pz      :     0.964203  p :     3.045246
      px      :     1.060840
      py      :     1.020204
      dz2     :     0.011896  d :     0.050473
      dxz     :     0.016649
      dyz     :     0.005822
      dx2y2   :     0.010785
      dxy     :     0.005321
      f0      :     0.000510  f :     0.003602
      f+1     :     0.000524
      f-1     :     0.000394
      f+2     :     0.001115
      f-2     :     0.000598
      f+3     :     0.000075
      f-3     :     0.000386

 31 C s       :     3.250130  s :     3.250130
      pz      :     0.874822  p :     2.872110
      px      :     1.035088
      py      :     0.962200
      dz2     :     0.024923  d :     0.091382
      dxz     :     0.014667
      dyz     :     0.022929
      dx2y2   :     0.007306
      dxy     :     0.021557
      f0      :     0.001219  f :     0.005628
      f+1     :     0.000796
      f-1     :     0.001634
      f+2     :     0.000205
      f-2     :     0.000380
      f+3     :     0.000605
      f-3     :     0.000789

 32 C s       :     3.296933  s :     3.296933
      pz      :     1.052307  p :     3.065545
      px      :     1.055516
      py      :     0.957721
      dz2     :     0.018748  d :     0.050917
      dxz     :     0.001662
      dyz     :     0.005611
      dx2y2   :     0.005720
      dxy     :     0.019176
      f0      :     0.000816  f :     0.003539
      f+1     :     0.000006
      f-1     :     0.000881
      f+2     :     0.000147
      f-2     :     0.000324
      f+3     :     0.000574
      f-3     :     0.000791

 33 N s       :     3.720117  s :     3.720117
      pz      :     1.346384  p :     3.628446
      px      :     1.200327
      py      :     1.081736
      dz2     :     0.006440  d :     0.055088
      dxz     :     0.007951
      dyz     :     0.010789
      dx2y2   :     0.015321
      dxy     :     0.014586
      f0      :     0.000488  f :     0.003526
      f+1     :     0.000287
      f-1     :     0.000549
      f+2     :     0.000389
      f-2     :     0.000463
      f+3     :     0.000836
      f-3     :     0.000512

 34 C s       :     3.136263  s :     3.136263
      pz      :     0.913316  p :     2.471931
      px      :     0.820734
      py      :     0.737881
      dz2     :     0.014316  d :     0.155895
      dxz     :     0.030138
      dyz     :     0.026991
      dx2y2   :     0.037810
      dxy     :     0.046640
      f0      :     0.001466  f :     0.014353
      f+1     :     0.000778
      f-1     :     0.001988
      f+2     :     0.002120
      f-2     :     0.001429
      f+3     :     0.003197
      f-3     :     0.003375

 35 C s       :     3.317685  s :     3.317685
      pz      :     0.932228  p :     2.622435
      px      :     0.850157
      py      :     0.840049
      dz2     :     0.012602  d :     0.135384
      dxz     :     0.021510
      dyz     :     0.025849
      dx2y2   :     0.045291
      dxy     :     0.030132
      f0      :     0.001075  f :     0.009784
      f+1     :     0.000599
      f-1     :     0.001351
      f+2     :     0.001453
      f-2     :     0.000925
      f+3     :     0.001528
      f-3     :     0.002852

 36 C s       :     3.176287  s :     3.176287
      pz      :     1.039952  p :     2.723929
      px      :     0.817141
      py      :     0.866837
      dz2     :     0.012740  d :     0.115718
      dxz     :     0.014168
      dyz     :     0.022162
      dx2y2   :     0.032971
      dxy     :     0.033678
      f0      :     0.001185  f :     0.010630
      f+1     :     0.000931
      f-1     :     0.001368
      f+2     :     0.000752
      f-2     :     0.001517
      f+3     :     0.002679
      f-3     :     0.002198

 37 C s       :     3.233019  s :     3.233019
      pz      :     0.887444  p :     2.371220
      px      :     0.678007
      py      :     0.805769
      dz2     :     0.012551  d :     0.170451
      dxz     :     0.042511
      dyz     :     0.025787
      dx2y2   :     0.051237
      dxy     :     0.038364
      f0      :     0.001674  f :     0.015963
      f+1     :     0.001326
      f-1     :     0.001592
      f+2     :     0.001148
      f-2     :     0.002497
      f+3     :     0.005038
      f-3     :     0.002688

 38 C s       :     3.404849  s :     3.404849
      pz      :     1.038323  p :     2.985518
      px      :     1.017144
      py      :     0.930051
      dz2     :     0.007624  d :     0.047107
      dxz     :     0.004269
      dyz     :     0.014652
      dx2y2   :     0.015039
      dxy     :     0.005524
      f0      :     0.000320  f :     0.003439
      f+1     :     0.000337
      f-1     :     0.000729
      f+2     :     0.000376
      f-2     :     0.000322
      f+3     :     0.000615
      f-3     :     0.000739

 39 C s       :     3.169202  s :     3.169202
      pz      :     0.742358  p :     2.523191
      px      :     0.864539
      py      :     0.916294
      dz2     :     0.010027  d :     0.209412
      dxz     :     0.056302
      dyz     :     0.016032
      dx2y2   :     0.056577
      dxy     :     0.070474
      f0      :     0.001927  f :     0.018443
      f+1     :     0.001706
      f-1     :     0.000865
      f+2     :     0.002607
      f-2     :     0.001453
      f+3     :     0.005155
      f-3     :     0.004730

 40 O s       :     3.773112  s :     3.773112
      pz      :     1.420241  p :     4.522337
      px      :     1.387979
      py      :     1.714116
      dz2     :     0.002486  d :     0.028660
      dxz     :     0.009744
      dyz     :     0.000800
      dx2y2   :     0.007415
      dxy     :     0.008216
      f0      :     0.000166  f :     0.001689
      f+1     :     0.000160
      f-1     :     0.000023
      f+2     :     0.000327
      f-2     :     0.000115
      f+3     :     0.000443
      f-3     :     0.000455

 41 C s       :     3.069609  s :     3.069609
      pz      :     0.911159  p :     2.809516
      px      :     0.883285
      py      :     1.015073
      dz2     :     0.014009  d :     0.102252
      dxz     :     0.028851
      dyz     :     0.017614
      dx2y2   :     0.018267
      dxy     :     0.023511
      f0      :     0.001150  f :     0.006960
      f+1     :     0.001052
      f-1     :     0.000881
      f+2     :     0.001133
      f-2     :     0.000455
      f+3     :     0.001027
      f-3     :     0.001261

 42 C s       :     3.126424  s :     3.126424
      pz      :     0.818711  p :     2.283345
      px      :     0.736970
      py      :     0.727664
      dz2     :     0.066966  d :     0.274333
      dxz     :     0.074395
      dyz     :     0.055710
      dx2y2   :     0.041782
      dxy     :     0.035480
      f0      :     0.006939  f :     0.025690
      f+1     :     0.004228
      f-1     :     0.003699
      f+2     :     0.002819
      f-2     :     0.003243
      f+3     :     0.003156
      f-3     :     0.001605

 43 O s       :     3.779349  s :     3.779349
      pz      :     1.416940  p :     4.552613
      px      :     1.652375
      py      :     1.483298
      dz2     :     0.008544  d :     0.028628
      dxz     :     0.007893
      dyz     :     0.008615
      dx2y2   :     0.001890
      dxy     :     0.001686
      f0      :     0.000471  f :     0.001797
      f+1     :     0.000432
      f-1     :     0.000385
      f+2     :     0.000255
      f-2     :     0.000229
      f+3     :     0.000010
      f-3     :     0.000015

 44 O s       :     3.758107  s :     3.758107
      pz      :     1.520413  p :     4.465148
      px      :     1.317802
      py      :     1.626934
      dz2     :     0.009479  d :     0.038650
      dxz     :     0.010108
      dyz     :     0.005079
      dx2y2   :     0.006638
      dxy     :     0.007347
      f0      :     0.000194  f :     0.002061
      f+1     :     0.000369
      f-1     :     0.000142
      f+2     :     0.000257
      f-2     :     0.000301
      f+3     :     0.000384
      f-3     :     0.000415

 45 C s       :     3.280143  s :     3.280143
      pz      :     0.802584  p :     2.865958
      px      :     0.976560
      py      :     1.086815
      dz2     :     0.016798  d :     0.079637
      dxz     :     0.017364
      dyz     :     0.025118
      dx2y2   :     0.009534
      dxy     :     0.010823
      f0      :     0.001314  f :     0.007642
      f+1     :     0.001367
      f-1     :     0.000670
      f+2     :     0.001664
      f-2     :     0.001905
      f+3     :     0.000269
      f-3     :     0.000453

 46 C s       :     3.251769  s :     3.251769
      pz      :     0.771209  p :     2.720268
      px      :     1.055820
      py      :     0.893238
      dz2     :     0.019022  d :     0.112198
      dxz     :     0.023586
      dyz     :     0.032313
      dx2y2   :     0.019462
      dxy     :     0.017815
      f0      :     0.001899  f :     0.009416
      f+1     :     0.000865
      f-1     :     0.001793
      f+2     :     0.001761
      f-2     :     0.001360
      f+3     :     0.000763
      f-3     :     0.000975

 47 C s       :     3.202867  s :     3.202867
      pz      :     1.040398  p :     2.935225
      px      :     0.978826
      py      :     0.916002
      dz2     :     0.006513  d :     0.077871
      dxz     :     0.005914
      dyz     :     0.016156
      dx2y2   :     0.031870
      dxy     :     0.017417
      f0      :     0.000746  f :     0.007012
      f+1     :     0.000628
      f-1     :     0.001193
      f+2     :     0.000621
      f-2     :     0.000710
      f+3     :     0.001380
      f-3     :     0.001734

 48 C s       :     3.222378  s :     3.222378
      pz      :     0.874608  p :     2.579765
      px      :     0.826593
      py      :     0.878564
      dz2     :     0.014727  d :     0.129337
      dxz     :     0.021608
      dyz     :     0.020394
      dx2y2   :     0.041015
      dxy     :     0.031592
      f0      :     0.000896  f :     0.009272
      f+1     :     0.000860
      f-1     :     0.001133
      f+2     :     0.001159
      f-2     :     0.000829
      f+3     :     0.001382
      f-3     :     0.003014

 49 C s       :     3.325984  s :     3.325984
      pz      :     1.072360  p :     3.031829
      px      :     0.887137
      py      :     1.072331
      dz2     :     0.006601  d :     0.045574
      dxz     :     0.013895
      dyz     :     0.003274
      dx2y2   :     0.005041
      dxy     :     0.016764
      f0      :     0.000888  f :     0.003343
      f+1     :     0.000299
      f-1     :     0.000084
      f+2     :     0.000448
      f-2     :    -0.000013
      f+3     :     0.000942
      f-3     :     0.000694

 50 C s       :     3.244970  s :     3.244970
      pz      :     0.918973  p :     2.859631
      px      :     1.019284
      py      :     0.921374
      dz2     :     0.012521  d :     0.083110
      dxz     :     0.019875
      dyz     :     0.026541
      dx2y2   :     0.013813
      dxy     :     0.010360
      f0      :     0.001383  f :     0.005538
      f+1     :     0.000871
      f-1     :     0.001109
      f+2     :     0.000288
      f-2     :     0.000292
      f+3     :     0.000974
      f-3     :     0.000620

 51 C s       :     3.272026  s :     3.272026
      pz      :     0.933680  p :     2.911360
      px      :     1.018842
      py      :     0.958837
      dz2     :     0.014343  d :     0.087104
      dxz     :     0.019158
      dyz     :     0.025934
      dx2y2   :     0.019174
      dxy     :     0.008495
      f0      :     0.001430  f :     0.005735
      f+1     :     0.000941
      f-1     :     0.001099
      f+2     :     0.000210
      f-2     :     0.000393
      f+3     :     0.000899
      f-3     :     0.000764

 52 C s       :     3.242791  s :     3.242791
      pz      :     0.931246  p :     2.890517
      px      :     1.008766
      py      :     0.950505
      dz2     :     0.012282  d :     0.086168
      dxz     :     0.019437
      dyz     :     0.025973
      dx2y2   :     0.018275
      dxy     :     0.010200
      f0      :     0.001419  f :     0.005686
      f+1     :     0.000835
      f-1     :     0.001094
      f+2     :     0.000257
      f-2     :     0.000434
      f+3     :     0.000885
      f-3     :     0.000762

 53 C s       :     3.156386  s :     3.156386
      pz      :     0.875218  p :     2.671913
      px      :     0.872263
      py      :     0.924432
      dz2     :     0.026708  d :     0.131875
      dxz     :     0.030007
      dyz     :     0.024216
      dx2y2   :     0.023635
      dxy     :     0.027308
      f0      :     0.001481  f :     0.007900
      f+1     :     0.001730
      f-1     :     0.000946
      f+2     :     0.000350
      f-2     :     0.000956
      f+3     :     0.001152
      f-3     :     0.001286

 54 C s       :     3.311744  s :     3.311744
      pz      :     1.049548  p :     3.073523
      px      :     0.959703
      py      :     1.064272
      dz2     :     0.015282  d :     0.049426
      dxz     :     0.007061
      dyz     :     0.002984
      dx2y2   :     0.004178
      dxy     :     0.019921
      f0      :     0.000816  f :     0.003497
      f+1     :     0.000693
      f-1     :     0.000093
      f+2     :     0.000163
      f-2     :     0.000345
      f+3     :     0.000902
      f-3     :     0.000485

 55 C s       :     3.242292  s :     3.242292
      pz      :     0.927806  p :     2.885934
      px      :     0.988552
      py      :     0.969575
      dz2     :     0.012076  d :     0.086743
      dxz     :     0.024582
      dyz     :     0.022188
      dx2y2   :     0.017464
      dxy     :     0.010434
      f0      :     0.001368  f :     0.005700
      f+1     :     0.000933
      f-1     :     0.000853
      f+2     :     0.000250
      f-2     :     0.000694
      f+3     :     0.000872
      f-3     :     0.000731

 56 C s       :     3.248983  s :     3.248983
      pz      :     0.941628  p :     2.909487
      px      :     0.989362
      py      :     0.978497
      dz2     :     0.012043  d :     0.086657
      dxz     :     0.024973
      dyz     :     0.021578
      dx2y2   :     0.018938
      dxy     :     0.009126
      f0      :     0.001426  f :     0.005755
      f+1     :     0.000975
      f-1     :     0.000764
      f+2     :     0.000147
      f-2     :     0.000795
      f+3     :     0.000888
      f-3     :     0.000759

 57 C s       :     3.241665  s :     3.241665
      pz      :     0.937929  p :     2.885735
      px      :     0.975289
      py      :     0.972517
      dz2     :     0.011893  d :     0.086738
      dxz     :     0.023948
      dyz     :     0.020701
      dx2y2   :     0.019558
      dxy     :     0.010639
      f0      :     0.001283  f :     0.005700
      f+1     :     0.000931
      f-1     :     0.000722
      f+2     :     0.000233
      f-2     :     0.000864
      f+3     :     0.000919
      f-3     :     0.000748

 58 C s       :     3.155794  s :     3.155794
      pz      :     0.865251  p :     2.671512
      px      :     0.874345
      py      :     0.931916
      dz2     :     0.029656  d :     0.131767
      dxz     :     0.030341
      dyz     :     0.022527
      dx2y2   :     0.025717
      dxy     :     0.023527
      f0      :     0.001528  f :     0.007900
      f+1     :     0.001583
      f-1     :     0.000739
      f+2     :     0.000586
      f-2     :     0.001385
      f+3     :     0.001225
      f-3     :     0.000854

 59 C s       :     3.311629  s :     3.311629
      pz      :     1.022279  p :     3.073622
      px      :     0.999427
      py      :     1.051916
      dz2     :     0.017427  d :     0.049517
      dxz     :     0.005922
      dyz     :     0.003773
      dx2y2   :     0.007010
      dxy     :     0.015386
      f0      :     0.000504  f :     0.003499
      f+1     :     0.001092
      f-1     :     0.000093
      f+2     :     0.000270
      f-2     :     0.000541
      f+3     :     0.000553
      f-3     :     0.000444

 60 C s       :     3.241609  s :     3.241609
      pz      :     0.941778  p :     2.885311
      px      :     0.951485
      py      :     0.992048
      dz2     :     0.014447  d :     0.086865
      dxz     :     0.023482
      dyz     :     0.017992
      dx2y2   :     0.019609
      dxy     :     0.011335
      f0      :     0.001060  f :     0.005697
      f+1     :     0.001065
      f-1     :     0.000499
      f+2     :     0.000327
      f-2     :     0.001130
      f+3     :     0.000950
      f-3     :     0.000666

 61 C s       :     3.251060  s :     3.251060
      pz      :     0.949962  p :     2.907300
      px      :     0.960761
      py      :     0.996577
      dz2     :     0.014283  d :     0.086699
      dxz     :     0.024170
      dyz     :     0.017513
      dx2y2   :     0.019488
      dxy     :     0.011245
      f0      :     0.001118  f :     0.005752
      f+1     :     0.001053
      f-1     :     0.000455
      f+2     :     0.000388
      f-2     :     0.001150
      f+3     :     0.000935
      f-3     :     0.000652

 62 C s       :     3.237885  s :     3.237885
      pz      :     0.956030  p :     2.883916
      px      :     0.931852
      py      :     0.996034
      dz2     :     0.013983  d :     0.086975
      dxz     :     0.023872
      dyz     :     0.016197
      dx2y2   :     0.020443
      dxy     :     0.012480
      f0      :     0.000891  f :     0.005664
      f+1     :     0.001108
      f-1     :     0.000439
      f+2     :     0.000395
      f-2     :     0.001168
      f+3     :     0.000998
      f-3     :     0.000665

 63 C s       :     3.159275  s :     3.159275
      pz      :     0.868853  p :     2.684464
      px      :     0.874989
      py      :     0.940623
      dz2     :     0.030351  d :     0.134218
      dxz     :     0.033429
      dyz     :     0.022055
      dx2y2   :     0.027690
      dxy     :     0.020693
      f0      :     0.001484  f :     0.007936
      f+1     :     0.001401
      f-1     :     0.000712
      f+2     :     0.001167
      f-2     :     0.001408
      f+3     :     0.001028
      f-3     :     0.000737

 64 C s       :     3.299828  s :     3.299828
      pz      :     0.992243  p :     3.061312
      px      :     1.034543
      py      :     1.034525
      dz2     :     0.014882  d :     0.050452
      dxz     :     0.011618
      dyz     :     0.004635
      dx2y2   :     0.009977
      dxy     :     0.009340
      f0      :     0.000467  f :     0.003534
      f+1     :     0.000925
      f-1     :     0.000253
      f+2     :     0.000684
      f-2     :     0.000597
      f+3     :     0.000205
      f-3     :     0.000404

 65 C s       :     3.301755  s :     3.301755
      pz      :     1.060073  p :     3.038562
      px      :     0.955776
      py      :     1.022713
      dz2     :     0.004784  d :     0.051529
      dxz     :     0.017729
      dyz     :     0.006136
      dx2y2   :     0.017513
      dxy     :     0.005366
      f0      :     0.000216  f :     0.003586
      f+1     :     0.000918
      f-1     :     0.000127
      f+2     :     0.000346
      f-2     :     0.000632
      f+3     :     0.000781
      f-3     :     0.000567

 66 H s       :     0.829643  s :     0.829643
      pz      :     0.006730  p :     0.023400
      px      :     0.004575
      py      :     0.012096

 67 H s       :     0.805194  s :     0.805194
      pz      :     0.005000  p :     0.025038
      px      :     0.015622
      py      :     0.004416

 68 H s       :     0.810793  s :     0.810793
      pz      :     0.006294  p :     0.022386
      px      :     0.004313
      py      :     0.011779

 69 H s       :     0.849760  s :     0.849760
      pz      :     0.008814  p :     0.022180
      px      :     0.009263
      py      :     0.004103

 70 H s       :     0.852023  s :     0.852023
      pz      :     0.005111  p :     0.021552
      px      :     0.004643
      py      :     0.011798

 71 H s       :     0.843874  s :     0.843874
      pz      :     0.005653  p :     0.021060
      px      :     0.010793
      py      :     0.004613

 72 H s       :     0.839556  s :     0.839556
      pz      :     0.005498  p :     0.020888
      px      :     0.004765
      py      :     0.010625

 73 H s       :     0.840869  s :     0.840869
      pz      :     0.005098  p :     0.020840
      px      :     0.007785
      py      :     0.007956

 74 H s       :     0.839026  s :     0.839026
      pz      :     0.004761  p :     0.021095
      px      :     0.004267
      py      :     0.012067

 75 H s       :     0.834194  s :     0.834194
      pz      :     0.005054  p :     0.021977
      px      :     0.012104
      py      :     0.004818

 76 H s       :     0.818230  s :     0.818230
      pz      :     0.004857  p :     0.022193
      px      :     0.004588
      py      :     0.012749

 77 H s       :     0.830265  s :     0.830265
      pz      :     0.004428  p :     0.021884
      px      :     0.012140
      py      :     0.005316

 78 H s       :     0.821259  s :     0.821259
      pz      :     0.007144  p :     0.021425
      px      :     0.009072
      py      :     0.005209

 79 H s       :     0.815314  s :     0.815314
      pz      :     0.011561  p :     0.021316
      px      :     0.005683
      py      :     0.004072

 80 H s       :     0.830908  s :     0.830908
      pz      :     0.004410  p :     0.022391
      px      :     0.008280
      py      :     0.009701

 81 H s       :     0.833081  s :     0.833081
      pz      :     0.004062  p :     0.021416
      px      :     0.011521
      py      :     0.005833

 82 H s       :     0.827276  s :     0.827276
      pz      :     0.011900  p :     0.021251
      px      :     0.004734
      py      :     0.004617

 83 H s       :     0.823273  s :     0.823273
      pz      :     0.005872  p :     0.021786
      px      :     0.004510
      py      :     0.011405

 84 H s       :     0.854621  s :     0.854621
      pz      :     0.008548  p :     0.021687
      px      :     0.009130
      py      :     0.004009

 85 H s       :     0.868603  s :     0.868603
      pz      :     0.005547  p :     0.021709
      px      :     0.004549
      py      :     0.011612

 86 H s       :     0.843026  s :     0.843026
      pz      :     0.004423  p :     0.020823
      px      :     0.004462
      py      :     0.011939

 87 H s       :     0.844879  s :     0.844879
      pz      :     0.008696  p :     0.020825
      px      :     0.008006
      py      :     0.004123

 88 H s       :     0.842960  s :     0.842960
      pz      :     0.005703  p :     0.021095
      px      :     0.010139
      py      :     0.005253

 89 H s       :     0.861911  s :     0.861911
      pz      :     0.004872  p :     0.021122
      px      :     0.010764
      py      :     0.005486

 90 H s       :     0.859393  s :     0.859393
      pz      :     0.004617  p :     0.020924
      px      :     0.007916
      py      :     0.008391

 91 H s       :     0.843296  s :     0.843296
      pz      :     0.012467  p :     0.020994
      px      :     0.004218
      py      :     0.004309

 92 H s       :     0.848054  s :     0.848054
      pz      :     0.004622  p :     0.021097
      px      :     0.010881
      py      :     0.005594

 93 H s       :     0.848978  s :     0.848978
      pz      :     0.004571  p :     0.021134
      px      :     0.008196
      py      :     0.008367

 94 H s       :     0.833378  s :     0.833378
      pz      :     0.004278  p :     0.021511
      px      :     0.012927
      py      :     0.004306

 95 H s       :     0.825493  s :     0.825493
      pz      :     0.007457  p :     0.020971
      px      :     0.004187
      py      :     0.009327

 96 H s       :     0.829252  s :     0.829252
      pz      :     0.011016  p :     0.020902
      px      :     0.004784
      py      :     0.005102

 97 H s       :     0.830983  s :     0.830983
      pz      :     0.009065  p :     0.022670
      px      :     0.004878
      py      :     0.008727

 98 H s       :     0.823614  s :     0.823614
      pz      :     0.003719  p :     0.020323
      px      :     0.010767
      py      :     0.005837

 99 H s       :     0.831758  s :     0.831758
      pz      :     0.007046  p :     0.020105
      px      :     0.005350
      py      :     0.007709

100 H s       :     0.829296  s :     0.829296
      pz      :     0.005670  p :     0.020136
      px      :     0.004089
      py      :     0.010378

101 H s       :     0.833516  s :     0.833516
      pz      :     0.005795  p :     0.021006
      px      :     0.008520
      py      :     0.006690

102 H s       :     0.813313  s :     0.813313
      pz      :     0.006376  p :     0.020717
      px      :     0.010456
      py      :     0.003886

103 H s       :     0.838639  s :     0.838639
      pz      :     0.005037  p :     0.022150
      px      :     0.013567
      py      :     0.003547

104 H s       :     0.840023  s :     0.840023
      pz      :     0.006027  p :     0.020977
      px      :     0.005839
      py      :     0.009110

105 H s       :     0.843206  s :     0.843206
      pz      :     0.005341  p :     0.021765
      px      :     0.006080
      py      :     0.010345

106 H s       :     0.830380  s :     0.830380
      pz      :     0.012082  p :     0.021468
      px      :     0.004955
      py      :     0.004430

107 H s       :     0.856221  s :     0.856221
      pz      :     0.005104  p :     0.021252
      px      :     0.012140
      py      :     0.004008

108 H s       :     0.857010  s :     0.857010
      pz      :     0.006227  p :     0.020880
      px      :     0.005521
      py      :     0.009132

109 H s       :     0.850180  s :     0.850180
      pz      :     0.005347  p :     0.021609
      px      :     0.012096
      py      :     0.004166

110 H s       :     0.864563  s :     0.864563
      pz      :     0.006139  p :     0.020892
      px      :     0.005460
      py      :     0.009293

111 H s       :     0.868076  s :     0.868076
      pz      :     0.005777  p :     0.021045
      px      :     0.011190
      py      :     0.004078

112 H s       :     0.873116  s :     0.873116
      pz      :     0.005797  p :     0.020694
      px      :     0.005682
      py      :     0.009215

113 H s       :     0.901840  s :     0.901840
      pz      :     0.005583  p :     0.021066
      px      :     0.005581
      py      :     0.009903

114 H s       :     0.846052  s :     0.846052
      pz      :     0.012522  p :     0.021457
      px      :     0.004419
      py      :     0.004516

115 H s       :     0.861328  s :     0.861328
      pz      :     0.005242  p :     0.020694
      px      :     0.006071
      py      :     0.009381

116 H s       :     0.847111  s :     0.847111
      pz      :     0.004554  p :     0.021429
      px      :     0.007611
      py      :     0.009263

117 H s       :     0.871324  s :     0.871324
      pz      :     0.006885  p :     0.021032
      px      :     0.009917
      py      :     0.004230

118 H s       :     0.875234  s :     0.875234
      pz      :     0.005273  p :     0.020685
      px      :     0.005467
      py      :     0.009945

119 H s       :     0.859886  s :     0.859886
      pz      :     0.007263  p :     0.021842
      px      :     0.010104
      py      :     0.004475

120 H s       :     0.878063  s :     0.878063
      pz      :     0.005343  p :     0.020759
      px      :     0.005200
      py      :     0.010215

121 H s       :     0.871889  s :     0.871889
      pz      :     0.007609  p :     0.021032
      px      :     0.009126
      py      :     0.004297

122 H s       :     0.875803  s :     0.875803
      pz      :     0.005118  p :     0.020688
      px      :     0.005299
      py      :     0.010271

123 H s       :     0.903750  s :     0.903750
      pz      :     0.004972  p :     0.021057
      px      :     0.005049
      py      :     0.011036

124 H s       :     0.846376  s :     0.846376
      pz      :     0.011812  p :     0.021441
      px      :     0.005243
      py      :     0.004387

125 H s       :     0.862098  s :     0.862098
      pz      :     0.004700  p :     0.020689
      px      :     0.005417
      py      :     0.010573

126 H s       :     0.847080  s :     0.847080
      pz      :     0.004502  p :     0.021449
      px      :     0.009330
      py      :     0.007616

127 H s       :     0.871959  s :     0.871959
      pz      :     0.008679  p :     0.021024
      px      :     0.007651
      py      :     0.004695

128 H s       :     0.875951  s :     0.875951
      pz      :     0.004890  p :     0.020685
      px      :     0.004857
      py      :     0.010939

129 H s       :     0.858180  s :     0.858180
      pz      :     0.008983  p :     0.021762
      px      :     0.007608
      py      :     0.005172

130 H s       :     0.879083  s :     0.879083
      pz      :     0.005030  p :     0.020748
      px      :     0.004599
      py      :     0.011119

131 H s       :     0.873793  s :     0.873793
      pz      :     0.009292  p :     0.020937
      px      :     0.006756
      py      :     0.004888

132 H s       :     0.875374  s :     0.875374
      pz      :     0.004822  p :     0.020649
      px      :     0.004608
      py      :     0.011218

133 H s       :     0.902277  s :     0.902277
      pz      :     0.004611  p :     0.021041
      px      :     0.004519
      py      :     0.011910

134 H s       :     0.852451  s :     0.852451
      pz      :     0.009901  p :     0.020899
      px      :     0.006742
      py      :     0.004257

135 H s       :     0.862629  s :     0.862629
      pz      :     0.004445  p :     0.020641
      px      :     0.004936
      py      :     0.011259

136 H s       :     0.849224  s :     0.849224
      pz      :     0.005041  p :     0.021281
      px      :     0.009949
      py      :     0.006291

137 H s       :     0.852983  s :     0.852983
      pz      :     0.009266  p :     0.020882
      px      :     0.007371
      py      :     0.004245

138 H s       :     0.855174  s :     0.855174
      pz      :     0.008667  p :     0.020818
      px      :     0.006652
      py      :     0.005498

139 H s       :     0.862907  s :     0.862907
      pz      :     0.004804  p :     0.020626
      px      :     0.004345
      py      :     0.011477



                     *******************************
                     * LOEWDIN POPULATION ANALYSIS *
                     *******************************

----------------------
LOEWDIN ATOMIC CHARGES
----------------------
   0 Mg:    0.337098
   1 C :   -0.068895
   2 C :   -0.108706
   3 C :   -0.107773
   4 C :   -0.110030
   5 N :    0.218306
   6 C :   -0.140587
   7 C :   -0.164449
   8 C :   -0.188498
   9 C :   -0.169964
  10 C :   -0.269673
  11 C :   -0.216868
  12 C :   -0.213173
  13 C :   -0.468817
  14 O :    0.075636
  15 O :    0.245883
  16 N :    0.171572
  17 C :   -0.170020
  18 C :   -0.078858
  19 C :   -0.081533
  20 C :   -0.153777
  21 C :   -0.250305
  22 C :   -0.304450
  23 O :    0.069419
  24 C :   -0.254445
  25 N :    0.213765
  26 C :   -0.164354
  27 C :   -0.191872
  28 C :   -0.172138
  29 C :   -0.167334
  30 C :   -0.271550
  31 C :   -0.256058
  32 C :   -0.307578
  33 N :    0.179430
  34 C :   -0.163944
  35 C :   -0.093146
  36 C :   -0.087666
  37 C :   -0.149923
  38 C :   -0.256996
  39 C :   -0.244323
  40 O :    0.081563
  41 C :   -0.106360
  42 C :   -0.456582
  43 O :    0.085397
  44 O :    0.246234
  45 C :   -0.299274
  46 C :   -0.261522
  47 C :   -0.180911
  48 C :   -0.183041
  49 C :   -0.257037
  50 C :   -0.220057
  51 C :   -0.254807
  52 C :   -0.244963
  53 C :   -0.283724
  54 C :   -0.290233
  55 C :   -0.245789
  56 C :   -0.264653
  57 C :   -0.246003
  58 C :   -0.284328
  59 C :   -0.290640
  60 C :   -0.246234
  61 C :   -0.264768
  62 C :   -0.248778
  63 C :   -0.311658
  64 C :   -0.294343
  65 C :   -0.295275
  66 H :    0.166081
  67 H :    0.166847
  68 H :    0.166406
  69 H :    0.169773
  70 H :    0.165203
  71 H :    0.124626
  72 H :    0.129703
  73 H :    0.126614
  74 H :    0.148567
  75 H :    0.144832
  76 H :    0.167760
  77 H :    0.154315
  78 H :    0.137168
  79 H :    0.139031
  80 H :    0.133233
  81 H :    0.132335
  82 H :    0.137664
  83 H :    0.142281
  84 H :    0.164668
  85 H :    0.165616
  86 H :    0.125619
  87 H :    0.128171
  88 H :    0.124708
  89 H :    0.139087
  90 H :    0.139963
  91 H :    0.121855
  92 H :    0.121906
  93 H :    0.124293
  94 H :    0.134785
  95 H :    0.137656
  96 H :    0.136282
  97 H :    0.180900
  98 H :    0.120423
  99 H :    0.116516
 100 H :    0.117655
 101 H :    0.137588
 102 H :    0.139391
 103 H :    0.147053
 104 H :    0.133725
 105 H :    0.128174
 106 H :    0.135105
 107 H :    0.145163
 108 H :    0.144944
 109 H :    0.135807
 110 H :    0.138269
 111 H :    0.139555
 112 H :    0.138300
 113 H :    0.150463
 114 H :    0.119799
 115 H :    0.122818
 116 H :    0.119673
 117 H :    0.138382
 118 H :    0.137575
 119 H :    0.133569
 120 H :    0.136403
 121 H :    0.138151
 122 H :    0.137432
 123 H :    0.149940
 124 H :    0.119648
 125 H :    0.122621
 126 H :    0.119480
 127 H :    0.138165
 128 H :    0.137461
 129 H :    0.134018
 130 H :    0.136434
 131 H :    0.138328
 132 H :    0.137320
 133 H :    0.148026
 134 H :    0.121003
 135 H :    0.121749
 136 H :    0.119094
 137 H :    0.120159
 138 H :    0.120053
 139 H :    0.120996

-------------------------------
LOEWDIN REDUCED ORBITAL CHARGES
-------------------------------
  0 Mgs       :     4.248507  s :     4.248507
      pz      :     2.139178  p :     6.701722
      px      :     2.297601
      py      :     2.264942
      dz2     :     0.080957  d :     0.712674
      dxz     :     0.115633
      dyz     :     0.082866
      dx2y2   :     0.180145
      dxy     :     0.253072

  1 C s       :     2.679821  s :     2.679821
      pz      :     0.900960  p :     2.839629
      px      :     0.951878
      py      :     0.986791
      dz2     :     0.049234  d :     0.492616
      dxz     :     0.070195
      dyz     :     0.078304
      dx2y2   :     0.158929
      dxy     :     0.135954
      f0      :     0.004493  f :     0.056829
      f+1     :     0.004729
      f-1     :     0.004718
      f+2     :     0.008515
      f-2     :     0.006224
      f+3     :     0.012654
      f-3     :     0.015496

  2 C s       :     2.740824  s :     2.740824
      pz      :     0.946054  p :     2.963040
      px      :     1.027730
      py      :     0.989256
      dz2     :     0.025386  d :     0.364624
      dxz     :     0.079814
      dyz     :     0.030337
      dx2y2   :     0.116965
      dxy     :     0.112122
      f0      :     0.003897  f :     0.040218
      f+1     :     0.005210
      f-1     :     0.001945
      f+2     :     0.004860
      f-2     :     0.004760
      f+3     :     0.009192
      f-3     :     0.010353

  3 C s       :     2.742417  s :     2.742417
      pz      :     0.942671  p :     2.965539
      px      :     1.012565
      py      :     1.010303
      dz2     :     0.037042  d :     0.359784
      dxz     :     0.027090
      dyz     :     0.066781
      dx2y2   :     0.122841
      dxy     :     0.106030
      f0      :     0.003225  f :     0.040033
      f+1     :     0.003359
      f-1     :     0.004691
      f+2     :     0.004656
      f-2     :     0.005444
      f+3     :     0.009970
      f-3     :     0.008687

  4 C s       :     2.743781  s :     2.743781
      pz      :     0.940051  p :     2.958412
      px      :     1.027982
      py      :     0.990379
      dz2     :     0.025065  d :     0.367315
      dxz     :     0.080762
      dyz     :     0.031108
      dx2y2   :     0.116550
      dxy     :     0.113829
      f0      :     0.003826  f :     0.040522
      f+1     :     0.005108
      f-1     :     0.002164
      f+2     :     0.004732
      f-2     :     0.004999
      f+3     :     0.009175
      f-3     :     0.010519

  5 N s       :     2.971236  s :     2.971236
      pz      :     1.136775  p :     3.583431
      px      :     1.158100
      py      :     1.288556
      dz2     :     0.020279  d :     0.208494
      dxz     :     0.044442
      dyz     :     0.019627
      dx2y2   :     0.061919
      dxy     :     0.062227
      f0      :     0.001293  f :     0.018532
      f+1     :     0.001550
      f-1     :     0.001290
      f+2     :     0.002878
      f-2     :     0.001902
      f+3     :     0.003685
      f-3     :     0.005934

  6 C s       :     2.696556  s :     2.696556
      pz      :     0.847162  p :     2.756619
      px      :     0.933700
      py      :     0.975758
      dz2     :     0.056179  d :     0.610753
      dxz     :     0.116777
      dyz     :     0.074665
      dx2y2   :     0.181069
      dxy     :     0.182062
      f0      :     0.005715  f :     0.076660
      f+1     :     0.006810
      f-1     :     0.005101
      f+2     :     0.012126
      f-2     :     0.007098
      f+3     :     0.017552
      f-3     :     0.022257

  7 C s       :     2.710346  s :     2.710346
      pz      :     0.984889  p :     2.920419
      px      :     0.972792
      py      :     0.962738
      dz2     :     0.073168  d :     0.480135
      dxz     :     0.123083
      dyz     :     0.087998
      dx2y2   :     0.118477
      dxy     :     0.077409
      f0      :     0.006647  f :     0.053548
      f+1     :     0.007057
      f-1     :     0.007483
      f+2     :     0.008336
      f-2     :     0.005615
      f+3     :     0.010538
      f-3     :     0.007873

  8 C s       :     2.716019  s :     2.716019
      pz      :     1.000459  p :     2.933549
      px      :     0.958916
      py      :     0.974173
      dz2     :     0.110463  d :     0.484709
      dxz     :     0.107151
      dyz     :     0.087722
      dx2y2   :     0.088407
      dxy     :     0.090965
      f0      :     0.006883  f :     0.054222
      f+1     :     0.010782
      f-1     :     0.008057
      f+2     :     0.006264
      f-2     :     0.007891
      f+3     :     0.007852
      f-3     :     0.006492

  9 C s       :     2.706501  s :     2.706501
      pz      :     0.831105  p :     2.763618
      px      :     1.013409
      py      :     0.919104
      dz2     :     0.067124  d :     0.622315
      dxz     :     0.119894
      dyz     :     0.081270
      dx2y2   :     0.172545
      dxy     :     0.181482
      f0      :     0.005635  f :     0.077530
      f+1     :     0.007007
      f-1     :     0.007135
      f+2     :     0.010932
      f-2     :     0.009400
      f+3     :     0.012239
      f-3     :     0.025180

 10 C s       :     2.825507  s :     2.825507
      pz      :     1.014801  p :     3.161325
      px      :     1.072979
      py      :     1.073545
      dz2     :     0.057306  d :     0.258302
      dxz     :     0.070155
      dyz     :     0.069529
      dx2y2   :     0.027544
      dxy     :     0.033768
      f0      :     0.005250  f :     0.024539
      f+1     :     0.005485
      f-1     :     0.005832
      f+2     :     0.002638
      f-2     :     0.002238
      f+3     :     0.001740
      f-3     :     0.001357

 11 C s       :     2.765731  s :     2.765731
      pz      :     0.991791  p :     3.026584
      px      :     1.020795
      py      :     1.013998
      dz2     :     0.092845  d :     0.386666
      dxz     :     0.087848
      dyz     :     0.079212
      dx2y2   :     0.085182
      dxy     :     0.041579
      f0      :     0.008139  f :     0.037887
      f+1     :     0.005549
      f-1     :     0.005035
      f+2     :     0.005885
      f-2     :     0.006901
      f+3     :     0.002245
      f-3     :     0.004133

 12 C s       :     2.767968  s :     2.767968
      pz      :     0.995596  p :     3.050126
      px      :     1.031371
      py      :     1.023159
      dz2     :     0.088352  d :     0.357917
      dxz     :     0.077027
      dyz     :     0.078465
      dx2y2   :     0.068971
      dxy     :     0.045102
      f0      :     0.006729  f :     0.037162
      f+1     :     0.005906
      f-1     :     0.005419
      f+2     :     0.005549
      f-2     :     0.007062
      f+3     :     0.002103
      f-3     :     0.004394

 13 C s       :     2.753497  s :     2.753497
      pz      :     0.881901  p :     2.624880
      px      :     0.972908
      py      :     0.770071
      dz2     :     0.148966  d :     0.936922
      dxz     :     0.299517
      dyz     :     0.069140
      dx2y2   :     0.189192
      dxy     :     0.230106
      f0      :     0.019425  f :     0.153519
      f+1     :     0.031913
      f-1     :     0.007585
      f+2     :     0.026905
      f-2     :     0.019803
      f+3     :     0.023873
      f-3     :     0.024015

 14 O s       :     3.386201  s :     3.386201
      pz      :     1.540615  p :     4.466019
      px      :     1.508896
      py      :     1.416508
      dz2     :     0.008666  d :     0.065907
      dxz     :     0.018643
      dyz     :     0.000989
      dx2y2   :     0.022801
      dxy     :     0.014808
      f0      :     0.000685  f :     0.006237
      f+1     :     0.001208
      f-1     :     0.000088
      f+2     :     0.001101
      f-2     :     0.000201
      f+3     :     0.001672
      f-3     :     0.001283

 15 O s       :     3.259786  s :     3.259786
      pz      :     1.354094  p :     4.386217
      px      :     1.547633
      py      :     1.484490
      dz2     :     0.022394  d :     0.101833
      dxz     :     0.030492
      dyz     :     0.020602
      dx2y2   :     0.013694
      dxy     :     0.014651
      f0      :     0.000870  f :     0.006281
      f+1     :     0.001243
      f-1     :     0.000784
      f+2     :     0.001131
      f-2     :     0.001038
      f+3     :     0.000609
      f-3     :     0.000605

 16 N s       :     2.965819  s :     2.965819
      pz      :     1.204148  p :     3.644452
      px      :     1.285749
      py      :     1.154555
      dz2     :     0.021757  d :     0.199749
      dxz     :     0.022547
      dyz     :     0.035982
      dx2y2   :     0.061458
      dxy     :     0.058006
      f0      :     0.001351  f :     0.018408
      f+1     :     0.001241
      f-1     :     0.001713
      f+2     :     0.002396
      f-2     :     0.002134
      f+3     :     0.005885
      f-3     :     0.003687

 17 C s       :     2.689754  s :     2.689754
      pz      :     0.853460  p :     2.773190
      px      :     0.993067
      py      :     0.926664
      dz2     :     0.068606  d :     0.628273
      dxz     :     0.090874
      dyz     :     0.108241
      dx2y2   :     0.179394
      dxy     :     0.181158
      f0      :     0.005374  f :     0.078803
      f+1     :     0.004854
      f-1     :     0.008287
      f+2     :     0.012662
      f-2     :     0.008880
      f+3     :     0.020643
      f-3     :     0.018103

 18 C s       :     2.705370  s :     2.705370
      pz      :     0.829262  p :     2.804434
      px      :     0.985518
      py      :     0.989655
      dz2     :     0.049141  d :     0.510590
      dxz     :     0.079304
      dyz     :     0.081312
      dx2y2   :     0.159004
      dxy     :     0.141829
      f0      :     0.004006  f :     0.058463
      f+1     :     0.004715
      f-1     :     0.005515
      f+2     :     0.008912
      f-2     :     0.006619
      f+3     :     0.009483
      f-3     :     0.019214

 19 C s       :     2.698036  s :     2.698036
      pz      :     0.916218  p :     2.866571
      px      :     0.969214
      py      :     0.981139
      dz2     :     0.050461  d :     0.461963
      dxz     :     0.061553
      dyz     :     0.063669
      dx2y2   :     0.143593
      dxy     :     0.142687
      f0      :     0.003991  f :     0.054964
      f+1     :     0.005920
      f-1     :     0.003538
      f+2     :     0.005736
      f-2     :     0.007749
      f+3     :     0.011733
      f-3     :     0.016297

 20 C s       :     2.690680  s :     2.690680
      pz      :     0.842156  p :     2.751982
      px      :     0.926640
      py      :     0.983186
      dz2     :     0.059702  d :     0.632150
      dxz     :     0.115563
      dyz     :     0.091278
      dx2y2   :     0.181078
      dxy     :     0.184529
      f0      :     0.005321  f :     0.078965
      f+1     :     0.007181
      f-1     :     0.005579
      f+2     :     0.008149
      f-2     :     0.012833
      f+3     :     0.026358
      f-3     :     0.013545

 21 C s       :     2.808077  s :     2.808077
      pz      :     1.070652  p :     3.168336
      px      :     1.061708
      py      :     1.035976
      dz2     :     0.048166  d :     0.248934
      dxz     :     0.045638
      dyz     :     0.037451
      dx2y2   :     0.041925
      dxy     :     0.075755
      f0      :     0.002419  f :     0.024958
      f+1     :     0.002574
      f-1     :     0.003990
      f+2     :     0.004128
      f-2     :     0.002818
      f+3     :     0.003815
      f-3     :     0.005213

 22 C s       :     2.756366  s :     2.756366
      pz      :     0.795142  p :     2.672378
      px      :     1.004504
      py      :     0.872731
      dz2     :     0.109968  d :     0.765334
      dxz     :     0.143424
      dyz     :     0.125403
      dx2y2   :     0.183600
      dxy     :     0.202940
      f0      :     0.008896  f :     0.110371
      f+1     :     0.008261
      f-1     :     0.015943
      f+2     :     0.021489
      f-2     :     0.014467
      f+3     :     0.017476
      f-3     :     0.023839

 23 O s       :     3.392768  s :     3.392768
      pz      :     1.390207  p :     4.464885
      px      :     1.639910
      py      :     1.434769
      dz2     :     0.008377  d :     0.067009
      dxz     :     0.008364
      dyz     :     0.018762
      dx2y2   :     0.014412
      dxy     :     0.017095
      f0      :     0.000470  f :     0.005919
      f+1     :     0.000217
      f-1     :     0.000861
      f+2     :     0.001214
      f-2     :     0.001258
      f+3     :     0.000906
      f-3     :     0.000993

 24 C s       :     2.829570  s :     2.829570
      pz      :     1.064047  p :     3.181858
      px      :     1.049471
      py      :     1.068340
      dz2     :     0.051165  d :     0.219660
      dxz     :     0.032480
      dyz     :     0.040493
      dx2y2   :     0.050101
      dxy     :     0.045421
      f0      :     0.002623  f :     0.023357
      f+1     :     0.003684
      f-1     :     0.002062
      f+2     :     0.004381
      f-2     :     0.003567
      f+3     :     0.002142
      f-3     :     0.004898

 25 N s       :     2.969482  s :     2.969482
      pz      :     1.132201  p :     3.588441
      px      :     1.171419
      py      :     1.284821
      dz2     :     0.020203  d :     0.209821
      dxz     :     0.042045
      dyz     :     0.019968
      dx2y2   :     0.063787
      dxy     :     0.063818
      f0      :     0.001228  f :     0.018491
      f+1     :     0.001596
      f-1     :     0.001275
      f+2     :     0.002809
      f-2     :     0.001753
      f+3     :     0.003706
      f-3     :     0.006124

 26 C s       :     2.706810  s :     2.706810
      pz      :     0.817556  p :     2.756706
      px      :     0.960312
      py      :     0.978839
      dz2     :     0.052801  d :     0.623243
      dxz     :     0.122789
      dyz     :     0.072127
      dx2y2   :     0.187783
      dxy     :     0.187743
      f0      :     0.005576  f :     0.077594
      f+1     :     0.007005
      f-1     :     0.004639
      f+2     :     0.012223
      f-2     :     0.006850
      f+3     :     0.017812
      f-3     :     0.023490

 27 C s       :     2.715712  s :     2.715712
      pz      :     0.995947  p :     2.936866
      px      :     0.973641
      py      :     0.967278
      dz2     :     0.077018  d :     0.484954
      dxz     :     0.125134
      dyz     :     0.087386
      dx2y2   :     0.115447
      dxy     :     0.079969
      f0      :     0.007138  f :     0.054340
      f+1     :     0.007004
      f-1     :     0.007670
      f+2     :     0.008270
      f-2     :     0.005657
      f+3     :     0.010818
      f-3     :     0.007785

 28 C s       :     2.715597  s :     2.715597
      pz      :     0.990216  p :     2.922741
      px      :     0.959605
      py      :     0.972921
      dz2     :     0.104873  d :     0.480568
      dxz     :     0.105273
      dyz     :     0.090390
      dx2y2   :     0.088119
      dxy     :     0.091913
      f0      :     0.006944  f :     0.053232
      f+1     :     0.010201
      f-1     :     0.006985
      f+2     :     0.006529
      f-2     :     0.007856
      f+3     :     0.008074
      f-3     :     0.006643

 29 C s       :     2.705704  s :     2.705704
      pz      :     0.840437  p :     2.771877
      px      :     1.014063
      py      :     0.917377
      dz2     :     0.062642  d :     0.613432
      dxz     :     0.117247
      dyz     :     0.080544
      dx2y2   :     0.172216
      dxy     :     0.180783
      f0      :     0.005480  f :     0.076321
      f+1     :     0.006634
      f-1     :     0.007149
      f+2     :     0.010281
      f-2     :     0.009221
      f+3     :     0.012633
      f-3     :     0.024924

 30 C s       :     2.825747  s :     2.825747
      pz      :     1.044694  p :     3.162124
      px      :     1.065614
      py      :     1.051816
      dz2     :     0.054243  d :     0.259113
      dxz     :     0.080480
      dyz     :     0.040031
      dx2y2   :     0.056688
      dxy     :     0.027671
      f0      :     0.005265  f :     0.024566
      f+1     :     0.002915
      f-1     :     0.003815
      f+2     :     0.004373
      f-2     :     0.003479
      f+3     :     0.001688
      f-3     :     0.003032

 31 C s       :     2.775698  s :     2.775698
      pz      :     0.989272  p :     3.047835
      px      :     1.030590
      py      :     1.027973
      dz2     :     0.105522  d :     0.394766
      dxz     :     0.062160
      dyz     :     0.094710
      dx2y2   :     0.042661
      dxy     :     0.089713
      f0      :     0.005471  f :     0.037759
      f+1     :     0.006237
      f-1     :     0.009597
      f+2     :     0.004343
      f-2     :     0.004662
      f+3     :     0.003298
      f-3     :     0.004151

 32 C s       :     2.824471  s :     2.824471
      pz      :     1.058312  p :     3.195988
      px      :     1.075281
      py      :     1.062394
      dz2     :     0.085010  d :     0.262025
      dxz     :     0.011165
      dyz     :     0.040120
      dx2y2   :     0.039856
      dxy     :     0.085874
      f0      :     0.003172  f :     0.025093
      f+1     :     0.001507
      f-1     :     0.004690
      f+2     :     0.004040
      f-2     :     0.004293
      f+3     :     0.003237
      f-3     :     0.004155

 33 N s       :     2.962653  s :     2.962653
      pz      :     1.193742  p :     3.637826
      px      :     1.306323
      py      :     1.137761
      dz2     :     0.021858  d :     0.201005
      dxz     :     0.020762
      dyz     :     0.037618
      dx2y2   :     0.062454
      dxy     :     0.058313
      f0      :     0.001337  f :     0.019086
      f+1     :     0.001314
      f-1     :     0.001658
      f+2     :     0.002127
      f-2     :     0.002518
      f+3     :     0.006081
      f-3     :     0.004050

 34 C s       :     2.693006  s :     2.693006
      pz      :     0.869666  p :     2.779114
      px      :     0.988898
      py      :     0.920550
      dz2     :     0.062740  d :     0.614899
      dxz     :     0.093489
      dyz     :     0.101645
      dx2y2   :     0.175758
      dxy     :     0.181266
      f0      :     0.005169  f :     0.076925
      f+1     :     0.004970
      f-1     :     0.007838
      f+2     :     0.012001
      f-2     :     0.008757
      f+3     :     0.018107
      f-3     :     0.020083

 35 C s       :     2.705608  s :     2.705608
      pz      :     0.851282  p :     2.820408
      px      :     0.982156
      py      :     0.986970
      dz2     :     0.046535  d :     0.508728
      dxz     :     0.076488
      dyz     :     0.082641
      dx2y2   :     0.164960
      dxy     :     0.138104
      f0      :     0.003949  f :     0.058403
      f+1     :     0.004343
      f-1     :     0.005761
      f+2     :     0.009775
      f-2     :     0.005675
      f+3     :     0.009588
      f-3     :     0.019312

 36 C s       :     2.679689  s :     2.679689
      pz      :     0.915647  p :     2.858707
      px      :     0.962502
      py      :     0.980558
      dz2     :     0.053131  d :     0.486496
      dxz     :     0.055259
      dyz     :     0.076222
      dx2y2   :     0.131439
      dxy     :     0.170445
      f0      :     0.004205  f :     0.062774
      f+1     :     0.005443
      f-1     :     0.004357
      f+2     :     0.005040
      f-2     :     0.010176
      f+3     :     0.018393
      f-3     :     0.015159

 37 C s       :     2.659990  s :     2.659990
      pz      :     0.828340  p :     2.730676
      px      :     0.942536
      py      :     0.959800
      dz2     :     0.062374  d :     0.672163
      dxz     :     0.131577
      dyz     :     0.092078
      dx2y2   :     0.194676
      dxy     :     0.191459
      f0      :     0.005641  f :     0.087094
      f+1     :     0.007730
      f-1     :     0.005722
      f+2     :     0.007391
      f-2     :     0.014991
      f+3     :     0.030096
      f-3     :     0.015522

 38 C s       :     2.810387  s :     2.810387
      pz      :     1.068989  p :     3.171641
      px      :     1.060765
      py      :     1.041887
      dz2     :     0.043556  d :     0.249776
      dxz     :     0.019418
      dyz     :     0.071604
      dx2y2   :     0.075754
      dxy     :     0.039444
      f0      :     0.002206  f :     0.025192
      f+1     :     0.003577
      f-1     :     0.003373
      f+2     :     0.002933
      f-2     :     0.003867
      f+3     :     0.004053
      f-3     :     0.005184

 39 C s       :     2.743505  s :     2.743505
      pz      :     0.717843  p :     2.633699
      px      :     0.991100
      py      :     0.924756
      dz2     :     0.054273  d :     0.762313
      dxz     :     0.163581
      dyz     :     0.054889
      dx2y2   :     0.230594
      dxy     :     0.258976
      f0      :     0.007481  f :     0.104806
      f+1     :     0.011234
      f-1     :     0.003938
      f+2     :     0.013170
      f-2     :     0.010420
      f+3     :     0.031040
      f-3     :     0.027523

 40 O s       :     3.389914  s :     3.389914
      pz      :     1.333559  p :     4.455102
      px      :     1.518592
      py      :     1.602951
      dz2     :     0.007492  d :     0.067342
      dxz     :     0.013621
      dyz     :     0.001368
      dx2y2   :     0.022691
      dxy     :     0.022170
      f0      :     0.000466  f :     0.006079
      f+1     :     0.000890
      f-1     :     0.000155
      f+2     :     0.000669
      f-2     :     0.000290
      f+3     :     0.001776
      f-3     :     0.001832

 41 C s       :     2.721845  s :     2.721845
      pz      :     0.983253  p :     2.913135
      px      :     0.959023
      py      :     0.970859
      dz2     :     0.069585  d :     0.425202
      dxz     :     0.103814
      dyz     :     0.081174
      dx2y2   :     0.090124
      dxy     :     0.080505
      f0      :     0.007010  f :     0.046178
      f+1     :     0.006909
      f-1     :     0.005021
      f+2     :     0.006517
      f-2     :     0.005236
      f+3     :     0.006624
      f-3     :     0.008861

 42 C s       :     2.747140  s :     2.747140
      pz      :     1.024048  p :     2.621102
      px      :     0.851294
      py      :     0.745760
      dz2     :     0.246570  d :     0.935165
      dxz     :     0.261899
      dyz     :     0.166002
      dx2y2   :     0.132462
      dxy     :     0.128232
      f0      :     0.042815  f :     0.153175
      f+1     :     0.024532
      f-1     :     0.019949
      f+2     :     0.017824
      f-2     :     0.021487
      f+3     :     0.014671
      f-3     :     0.011897

 43 O s       :     3.386204  s :     3.386204
      pz      :     1.519261  p :     4.455895
      px      :     1.547079
      py      :     1.389555
      dz2     :     0.025946  d :     0.066244
      dxz     :     0.020083
      dyz     :     0.013610
      dx2y2   :     0.003170
      dxy     :     0.003435
      f0      :     0.001881  f :     0.006260
      f+1     :     0.001857
      f-1     :     0.001017
      f+2     :     0.000657
      f-2     :     0.000735
      f+3     :     0.000046
      f-3     :     0.000066

 44 O s       :     3.249970  s :     3.249970
      pz      :     1.503394  p :     4.389380
      px      :     1.359416
      py      :     1.526570
      dz2     :     0.023515  d :     0.107713
      dxz     :     0.029803
      dyz     :     0.013513
      dx2y2   :     0.018826
      dxy     :     0.022055
      f0      :     0.001266  f :     0.006703
      f+1     :     0.001252
      f-1     :     0.000596
      f+2     :     0.000802
      f-2     :     0.001051
      f+3     :     0.000671
      f-3     :     0.001066

 45 C s       :     2.862033  s :     2.862033
      pz      :     0.914173  p :     3.029667
      px      :     1.006902
      py      :     1.108592
      dz2     :     0.079377  d :     0.355169
      dxz     :     0.087414
      dyz     :     0.099914
      dx2y2   :     0.040066
      dxy     :     0.048397
      f0      :     0.012037  f :     0.052405
      f+1     :     0.012258
      f-1     :     0.005000
      f+2     :     0.008308
      f-2     :     0.008502
      f+3     :     0.003158
      f-3     :     0.003141

 46 C s       :     2.796521  s :     2.796521
      pz      :     0.860975  p :     2.919998
      px      :     1.063293
      py      :     0.995730
      dz2     :     0.075570  d :     0.480974
      dxz     :     0.115641
      dyz     :     0.123252
      dx2y2   :     0.079967
      dxy     :     0.086545
      f0      :     0.012828  f :     0.064029
      f+1     :     0.006587
      f-1     :     0.013231
      f+2     :     0.009315
      f-2     :     0.009101
      f+3     :     0.005418
      f-3     :     0.007548

 47 C s       :     2.775333  s :     2.775333
      pz      :     0.951954  p :     2.995544
      px      :     1.012535
      py      :     1.031054
      dz2     :     0.028159  d :     0.369710
      dxz     :     0.020738
      dyz     :     0.064482
      dx2y2   :     0.161286
      dxy     :     0.095046
      f0      :     0.003068  f :     0.040324
      f+1     :     0.003180
      f-1     :     0.004371
      f+2     :     0.003749
      f-2     :     0.005773
      f+3     :     0.008257
      f-3     :     0.011928

 48 C s       :     2.732600  s :     2.732600
      pz      :     0.820330  p :     2.862963
      px      :     1.022734
      py      :     1.019899
      dz2     :     0.052105  d :     0.530968
      dxz     :     0.079963
      dyz     :     0.077034
      dx2y2   :     0.168234
      dxy     :     0.153633
      f0      :     0.004236  f :     0.056510
      f+1     :     0.004644
      f-1     :     0.004632
      f+2     :     0.007524
      f-2     :     0.006823
      f+3     :     0.008607
      f-3     :     0.020046

 49 C s       :     2.811881  s :     2.811881
      pz      :     1.073255  p :     3.170281
      px      :     1.029936
      py      :     1.067090
      dz2     :     0.045839  d :     0.250014
      dxz     :     0.056721
      dyz     :     0.021132
      dx2y2   :     0.048342
      dxy     :     0.077982
      f0      :     0.004134  f :     0.024861
      f+1     :     0.003088
      f-1     :     0.000453
      f+2     :     0.004178
      f-2     :     0.003127
      f+3     :     0.004797
      f-3     :     0.005084

 50 C s       :     2.764815  s :     2.764815
      pz      :     1.013949  p :     3.031670
      px      :     1.019213
      py      :     0.998508
      dz2     :     0.078954  d :     0.385396
      dxz     :     0.072457
      dyz     :     0.099974
      dx2y2   :     0.077408
      dxy     :     0.056604
      f0      :     0.006752  f :     0.038176
      f+1     :     0.006093
      f-1     :     0.006747
      f+2     :     0.004451
      f-2     :     0.004817
      f+3     :     0.005031
      f-3     :     0.004285

 51 C s       :     2.773030  s :     2.773030
      pz      :     1.001458  p :     3.049466
      px      :     1.028940
      py      :     1.019068
      dz2     :     0.081493  d :     0.393750
      dxz     :     0.073902
      dyz     :     0.100405
      dx2y2   :     0.083599
      dxy     :     0.054350
      f0      :     0.006898  f :     0.038561
      f+1     :     0.006519
      f-1     :     0.006677
      f+2     :     0.004150
      f-2     :     0.005153
      f+3     :     0.004547
      f-3     :     0.004617

 52 C s       :     2.771565  s :     2.771565
      pz      :     1.001889  p :     3.039142
      px      :     1.021980
      py      :     1.015273
      dz2     :     0.076848  d :     0.396109
      dxz     :     0.083305
      dyz     :     0.097706
      dx2y2   :     0.077890
      dxy     :     0.060360
      f0      :     0.006816  f :     0.038147
      f+1     :     0.005538
      f-1     :     0.006965
      f+2     :     0.004833
      f-2     :     0.004883
      f+3     :     0.004497
      f-3     :     0.004615

 53 C s       :     2.731645  s :     2.731645
      pz      :     0.991367  p :     2.980861
      px      :     0.999092
      py      :     0.990401
      dz2     :     0.113127  d :     0.518476
      dxz     :     0.109284
      dyz     :     0.093496
      dx2y2   :     0.091360
      dxy     :     0.111210
      f0      :     0.007928  f :     0.052742
      f+1     :     0.010863
      f-1     :     0.006361
      f+2     :     0.005535
      f-2     :     0.007703
      f+3     :     0.006680
      f-3     :     0.007672

 54 C s       :     2.823388  s :     2.823388
      pz      :     1.062730  p :     3.178716
      px      :     1.045242
      py      :     1.070744
      dz2     :     0.080554  d :     0.263329
      dxz     :     0.041640
      dyz     :     0.017410
      dx2y2   :     0.032847
      dxy     :     0.090878
      f0      :     0.003287  f :     0.024799
      f+1     :     0.004438
      f-1     :     0.001283
      f+2     :     0.004020
      f-2     :     0.004036
      f+3     :     0.004772
      f-3     :     0.002963

 55 C s       :     2.771626  s :     2.771626
      pz      :     1.015276  p :     3.039282
      px      :     1.011177
      py      :     1.012829
      dz2     :     0.074326  d :     0.396739
      dxz     :     0.102416
      dyz     :     0.083876
      dx2y2   :     0.071454
      dxy     :     0.064666
      f0      :     0.007316  f :     0.038143
      f+1     :     0.004824
      f-1     :     0.006425
      f+2     :     0.005266
      f-2     :     0.005072
      f+3     :     0.004793
      f-3     :     0.004447

 56 C s       :     2.771113  s :     2.771113
      pz      :     1.018130  p :     3.057828
      px      :     1.020756
      py      :     1.018942
      dz2     :     0.072574  d :     0.396738
      dxz     :     0.103792
      dyz     :     0.081092
      dx2y2   :     0.074885
      dxy     :     0.064394
      f0      :     0.007920  f :     0.038974
      f+1     :     0.005095
      f-1     :     0.006081
      f+2     :     0.004763
      f-2     :     0.005409
      f+3     :     0.005073
      f-3     :     0.004633

 57 C s       :     2.771699  s :     2.771699
      pz      :     1.003319  p :     3.039400
      px      :     1.016691
      py      :     1.019390
      dz2     :     0.070431  d :     0.396764
      dxz     :     0.107092
      dyz     :     0.075307
      dx2y2   :     0.073645
      dxy     :     0.070289
      f0      :     0.007151  f :     0.038139
      f+1     :     0.004619
      f-1     :     0.005886
      f+2     :     0.005049
      f-2     :     0.005611
      f+3     :     0.005298
      f-3     :     0.004526

 58 C s       :     2.731709  s :     2.731709
      pz      :     0.996231  p :     2.981244
      px      :     0.994297
      py      :     0.990715
      dz2     :     0.115834  d :     0.518613
      dxz     :     0.120430
      dyz     :     0.085515
      dx2y2   :     0.093039
      dxy     :     0.103796
      f0      :     0.009482  f :     0.052762
      f+1     :     0.008821
      f-1     :     0.006388
      f+2     :     0.006557
      f-2     :     0.008346
      f+3     :     0.008041
      f-3     :     0.005126

 59 C s       :     2.823372  s :     2.823372
      pz      :     1.056265  p :     3.178782
      px      :     1.052750
      py      :     1.069766
      dz2     :     0.084950  d :     0.263664
      dxz     :     0.044556
      dyz     :     0.022975
      dx2y2   :     0.036366
      dxy     :     0.074818
      f0      :     0.002832  f :     0.024821
      f+1     :     0.005591
      f-1     :     0.002321
      f+2     :     0.004347
      f-2     :     0.003392
      f+3     :     0.003420
      f-3     :     0.002919

 60 C s       :     2.771705  s :     2.771705
      pz      :     1.017537  p :     3.039490
      px      :     1.003473
      py      :     1.018480
      dz2     :     0.072175  d :     0.396919
      dxz     :     0.112218
      dyz     :     0.066299
      dx2y2   :     0.076097
      dxy     :     0.070131
      f0      :     0.006842  f :     0.038121
      f+1     :     0.004871
      f-1     :     0.005063
      f+2     :     0.004385
      f-2     :     0.006760
      f+3     :     0.006283
      f-3     :     0.003917

 61 C s       :     2.771245  s :     2.771245
      pz      :     1.023205  p :     3.058130
      px      :     1.013088
      py      :     1.021837
      dz2     :     0.071087  d :     0.396428
      dxz     :     0.109646
      dyz     :     0.068696
      dx2y2   :     0.078581
      dxy     :     0.068418
      f0      :     0.007489  f :     0.038964
      f+1     :     0.005105
      f-1     :     0.004824
      f+2     :     0.004191
      f-2     :     0.006883
      f+3     :     0.006527
      f-3     :     0.003945

 62 C s       :     2.772606  s :     2.772606
      pz      :     1.008923  p :     3.040882
      px      :     1.009500
      py      :     1.022460
      dz2     :     0.071981  d :     0.397180
      dxz     :     0.109247
      dyz     :     0.060827
      dx2y2   :     0.083260
      dxy     :     0.071865
      f0      :     0.006178  f :     0.038111
      f+1     :     0.005348
      f-1     :     0.004601
      f+2     :     0.004020
      f-2     :     0.007166
      f+3     :     0.006772
      f-3     :     0.004026

 63 C s       :     2.735011  s :     2.735011
      pz      :     1.001994  p :     2.997588
      px      :     0.999661
      py      :     0.995933
      dz2     :     0.116855  d :     0.525554
      dxz     :     0.128833
      dyz     :     0.084744
      dx2y2   :     0.106541
      dxy     :     0.088581
      f0      :     0.010240  f :     0.053505
      f+1     :     0.007811
      f-1     :     0.006555
      f+2     :     0.007743
      f-2     :     0.008542
      f+3     :     0.007398
      f-3     :     0.005214

 64 C s       :     2.826270  s :     2.826270
      pz      :     1.047954  p :     3.179422
      px      :     1.063445
      py      :     1.068022
      dz2     :     0.067860  d :     0.263848
      dxz     :     0.068983
      dyz     :     0.032947
      dx2y2   :     0.046315
      dxy     :     0.047742
      f0      :     0.004209  f :     0.024804
      f+1     :     0.004414
      f-1     :     0.003369
      f+2     :     0.004727
      f-2     :     0.002971
      f+3     :     0.002000
      f-3     :     0.003114

 65 C s       :     2.827918  s :     2.827918
      pz      :     1.069307  p :     3.177550
      px      :     1.040854
      py      :     1.067389
      dz2     :     0.028490  d :     0.264981
      dxz     :     0.090504
      dyz     :     0.029248
      dx2y2   :     0.074288
      dxy     :     0.042450
      f0      :     0.002379  f :     0.024826
      f+1     :     0.004358
      f-1     :     0.002507
      f+2     :     0.002238
      f-2     :     0.003892
      f+3     :     0.005792
      f-3     :     0.003661

 66 H s       :     0.772927  s :     0.772927
      pz      :     0.018431  p :     0.060991
      px      :     0.013073
      py      :     0.029488

 67 H s       :     0.766837  s :     0.766837
      pz      :     0.014792  p :     0.066316
      px      :     0.038525
      py      :     0.012999

 68 H s       :     0.773915  s :     0.773915
      pz      :     0.017699  p :     0.059679
      px      :     0.012594
      py      :     0.029387

 69 H s       :     0.772347  s :     0.772347
      pz      :     0.022428  p :     0.057880
      px      :     0.023004
      py      :     0.012448

 70 H s       :     0.777678  s :     0.777678
      pz      :     0.014786  p :     0.057120
      px      :     0.013414
      py      :     0.028920

 71 H s       :     0.814494  s :     0.814494
      pz      :     0.015373  p :     0.060880
      px      :     0.031087
      py      :     0.014420

 72 H s       :     0.809574  s :     0.809574
      pz      :     0.015123  p :     0.060722
      px      :     0.014806
      py      :     0.030793

 73 H s       :     0.812853  s :     0.812853
      pz      :     0.014244  p :     0.060533
      px      :     0.022912
      py      :     0.023377

 74 H s       :     0.793125  s :     0.793125
      pz      :     0.014075  p :     0.058308
      px      :     0.012985
      py      :     0.031248

 75 H s       :     0.795006  s :     0.795006
      pz      :     0.014857  p :     0.060161
      px      :     0.030198
      py      :     0.015107

 76 H s       :     0.771657  s :     0.771657
      pz      :     0.014431  p :     0.060582
      px      :     0.013539
      py      :     0.032613

 77 H s       :     0.785507  s :     0.785507
      pz      :     0.013095  p :     0.060178
      px      :     0.030691
      py      :     0.016392

 78 H s       :     0.801324  s :     0.801324
      pz      :     0.021694  p :     0.061508
      px      :     0.025436
      py      :     0.014378

 79 H s       :     0.799851  s :     0.799851
      pz      :     0.031927  p :     0.061118
      px      :     0.016636
      py      :     0.012555

 80 H s       :     0.804855  s :     0.804855
      pz      :     0.013487  p :     0.061912
      px      :     0.024743
      py      :     0.023681

 81 H s       :     0.806553  s :     0.806553
      pz      :     0.012427  p :     0.061112
      px      :     0.030578
      py      :     0.018107

 82 H s       :     0.800301  s :     0.800301
      pz      :     0.032815  p :     0.062035
      px      :     0.015067
      py      :     0.014153

 83 H s       :     0.795253  s :     0.795253
      pz      :     0.018112  p :     0.062466
      px      :     0.013395
      py      :     0.030959

 84 H s       :     0.778068  s :     0.778068
      pz      :     0.022094  p :     0.057263
      px      :     0.022876
      py      :     0.012294

 85 H s       :     0.777456  s :     0.777456
      pz      :     0.015607  p :     0.056928
      px      :     0.013183
      py      :     0.028137

 86 H s       :     0.813940  s :     0.813940
      pz      :     0.014147  p :     0.060441
      px      :     0.013833
      py      :     0.032461

 87 H s       :     0.811358  s :     0.811358
      pz      :     0.023534  p :     0.060472
      px      :     0.024071
      py      :     0.012866

 88 H s       :     0.814319  s :     0.814319
      pz      :     0.016155  p :     0.060973
      px      :     0.028362
      py      :     0.016455

 89 H s       :     0.802713  s :     0.802713
      pz      :     0.013914  p :     0.058200
      px      :     0.029142
      py      :     0.015144

 90 H s       :     0.802152  s :     0.802152
      pz      :     0.013408  p :     0.057885
      px      :     0.022863
      py      :     0.021614

 91 H s       :     0.817635  s :     0.817635
      pz      :     0.033479  p :     0.060510
      px      :     0.013488
      py      :     0.013543

 92 H s       :     0.816953  s :     0.816953
      pz      :     0.014611  p :     0.061141
      px      :     0.030530
      py      :     0.016000

 93 H s       :     0.814455  s :     0.814455
      pz      :     0.014422  p :     0.061252
      px      :     0.024072
      py      :     0.022757

 94 H s       :     0.804323  s :     0.804323
      pz      :     0.013269  p :     0.060892
      px      :     0.034101
      py      :     0.013521

 95 H s       :     0.801955  s :     0.801955
      pz      :     0.022431  p :     0.060389
      px      :     0.013365
      py      :     0.024593

 96 H s       :     0.803316  s :     0.803316
      pz      :     0.030745  p :     0.060402
      px      :     0.015294
      py      :     0.014362

 97 H s       :     0.759178  s :     0.759178
      pz      :     0.023296  p :     0.059922
      px      :     0.013972
      py      :     0.022653

 98 H s       :     0.818351  s :     0.818351
      pz      :     0.012500  p :     0.061225
      px      :     0.030756
      py      :     0.017969

 99 H s       :     0.821554  s :     0.821554
      pz      :     0.020918  p :     0.061930
      px      :     0.017406
      py      :     0.023607

100 H s       :     0.820341  s :     0.820341
      pz      :     0.016991  p :     0.062005
      px      :     0.012762
      py      :     0.032251

101 H s       :     0.802684  s :     0.802684
      pz      :     0.015890  p :     0.059729
      px      :     0.025746
      py      :     0.018093

102 H s       :     0.801656  s :     0.801656
      pz      :     0.017220  p :     0.058953
      px      :     0.029980
      py      :     0.011754

103 H s       :     0.792795  s :     0.792795
      pz      :     0.014942  p :     0.060152
      px      :     0.034159
      py      :     0.011052

104 H s       :     0.806074  s :     0.806074
      pz      :     0.018287  p :     0.060201
      px      :     0.015407
      py      :     0.026507

105 H s       :     0.810255  s :     0.810255
      pz      :     0.016493  p :     0.061571
      px      :     0.015659
      py      :     0.029419

106 H s       :     0.803883  s :     0.803883
      pz      :     0.033584  p :     0.061013
      px      :     0.013707
      py      :     0.013722

107 H s       :     0.797304  s :     0.797304
      pz      :     0.014408  p :     0.057533
      px      :     0.031338
      py      :     0.011787

108 H s       :     0.797492  s :     0.797492
      pz      :     0.017122  p :     0.057564
      px      :     0.016800
      py      :     0.023642

109 H s       :     0.804887  s :     0.804887
      pz      :     0.015021  p :     0.059306
      px      :     0.031163
      py      :     0.013123

110 H s       :     0.803792  s :     0.803792
      pz      :     0.016877  p :     0.057938
      px      :     0.016830
      py      :     0.024231

111 H s       :     0.802729  s :     0.802729
      pz      :     0.015640  p :     0.057717
      px      :     0.029420
      py      :     0.012657

112 H s       :     0.804015  s :     0.804015
      pz      :     0.016238  p :     0.057685
      px      :     0.017220
      py      :     0.024226

113 H s       :     0.794053  s :     0.794053
      pz      :     0.015584  p :     0.055484
      px      :     0.015587
      py      :     0.024314

114 H s       :     0.818832  s :     0.818832
      pz      :     0.033780  p :     0.061369
      px      :     0.013482
      py      :     0.014107

115 H s       :     0.817130  s :     0.817130
      pz      :     0.016406  p :     0.060052
      px      :     0.016934
      py      :     0.026712

116 H s       :     0.819031  s :     0.819031
      pz      :     0.014111  p :     0.061295
      px      :     0.020402
      py      :     0.026782

117 H s       :     0.803965  s :     0.803965
      pz      :     0.018408  p :     0.057653
      px      :     0.026124
      py      :     0.013122

118 H s       :     0.804796  s :     0.804796
      pz      :     0.015016  p :     0.057629
      px      :     0.016351
      py      :     0.026261

119 H s       :     0.807013  s :     0.807013
      pz      :     0.019115  p :     0.059418
      px      :     0.026286
      py      :     0.014017

120 H s       :     0.806106  s :     0.806106
      pz      :     0.015104  p :     0.057492
      px      :     0.015949
      py      :     0.026439

121 H s       :     0.804209  s :     0.804209
      pz      :     0.019706  p :     0.057640
      px      :     0.024425
      py      :     0.013508

122 H s       :     0.804941  s :     0.804941
      pz      :     0.014641  p :     0.057628
      px      :     0.016145
      py      :     0.026841

123 H s       :     0.794626  s :     0.794626
      pz      :     0.014420  p :     0.055434
      px      :     0.014411
      py      :     0.026603

124 H s       :     0.819012  s :     0.819012
      pz      :     0.031345  p :     0.061341
      px      :     0.016269
      py      :     0.013726

125 H s       :     0.817351  s :     0.817351
      pz      :     0.014882  p :     0.060028
      px      :     0.015688
      py      :     0.029458

126 H s       :     0.819193  s :     0.819193
      pz      :     0.013548  p :     0.061327
      px      :     0.025135
      py      :     0.022644

127 H s       :     0.804211  s :     0.804211
      pz      :     0.022457  p :     0.057624
      px      :     0.020559
      py      :     0.014607

128 H s       :     0.804917  s :     0.804917
      pz      :     0.014193  p :     0.057622
      px      :     0.014653
      py      :     0.028776

129 H s       :     0.806672  s :     0.806672
      pz      :     0.022850  p :     0.059310
      px      :     0.020556
      py      :     0.015904

130 H s       :     0.806077  s :     0.806077
      pz      :     0.014486  p :     0.057489
      px      :     0.014171
      py      :     0.028832

131 H s       :     0.804083  s :     0.804083
      pz      :     0.023660  p :     0.057589
      px      :     0.018706
      py      :     0.015223

132 H s       :     0.805109  s :     0.805109
      pz      :     0.014029  p :     0.057571
      px      :     0.014241
      py      :     0.029300

133 H s       :     0.796487  s :     0.796487
      pz      :     0.013766  p :     0.055487
      px      :     0.013462
      py      :     0.028259

134 H s       :     0.818714  s :     0.818714
      pz      :     0.026285  p :     0.060283
      px      :     0.020672
      py      :     0.013326

135 H s       :     0.818198  s :     0.818198
      pz      :     0.014043  p :     0.060053
      px      :     0.014859
      py      :     0.031151

136 H s       :     0.819741  s :     0.819741
      pz      :     0.014411  p :     0.061165
      px      :     0.027482
      py      :     0.019272

137 H s       :     0.819596  s :     0.819596
      pz      :     0.027142  p :     0.060245
      px      :     0.019867
      py      :     0.013236

138 H s       :     0.819742  s :     0.819742
      pz      :     0.024999  p :     0.060206
      px      :     0.018079
      py      :     0.017128

139 H s       :     0.818876  s :     0.818876
      pz      :     0.014792  p :     0.060128
      px      :     0.013658
      py      :     0.031678



                      *****************************
                      * MAYER POPULATION ANALYSIS *
                      *****************************

  NA   - Mulliken gross atomic population
  ZA   - Total nuclear charge
  QA   - Mulliken gross atomic charge
  VA   - Mayer's total valence
  BVA  - Mayer's bonded valence
  FA   - Mayer's free valence

  ATOM       NA         ZA         QA         VA         BVA        FA
  0 Mg    11.2983    12.0000     0.7017     1.9712     1.9712    -0.0000
  1 C      6.1229     6.0000    -0.1229     3.7613     3.7613    -0.0000
  2 C      6.3502     6.0000    -0.3502     3.9820     3.9820     0.0000
  3 C      6.3380     6.0000    -0.3380     3.9140     3.9140     0.0000
  4 C      6.3139     6.0000    -0.3139     3.8872     3.8872    -0.0000
  5 N      7.3883     7.0000    -0.3883     2.9377     2.9377    -0.0000
  6 C      5.8594     6.0000     0.1406     3.5109     3.5109    -0.0000
  7 C      5.9253     6.0000     0.0747     3.7867     3.7867    -0.0000
  8 C      6.0413     6.0000    -0.0413     3.8584     3.8584    -0.0000
  9 C      5.8637     6.0000     0.1363     3.8783     3.8783    -0.0000
 10 C      6.4337     6.0000    -0.4337     3.8624     3.8624    -0.0000
 11 C      6.3105     6.0000    -0.3105     3.8777     3.8777    -0.0000
 12 C      6.2405     6.0000    -0.2405     3.7429     3.7429    -0.0000
 13 C      5.6778     6.0000     0.3222     4.2871     4.2871    -0.0000
 14 O      8.3805     8.0000    -0.3805     2.1099     2.1099    -0.0000
 15 O      8.2731     8.0000    -0.2731     2.0898     2.0898    -0.0000
 16 N      7.3727     7.0000    -0.3727     3.0314     3.0314     0.0000
 17 C      5.7414     6.0000     0.2586     3.6697     3.6697     0.0000
 18 C      6.0094     6.0000    -0.0094     3.7811     3.7811    -0.0000
 19 C      6.0827     6.0000    -0.0827     3.6372     3.6372    -0.0000
 20 C      5.8029     6.0000     0.1971     3.8414     3.8414     0.0000
 21 C      6.4196     6.0000    -0.4196     3.8712     3.8712    -0.0000
 22 C      5.7511     6.0000     0.2489     4.0254     4.0254    -0.0000
 23 O      8.3801     8.0000    -0.3801     2.0676     2.0676    -0.0000
 24 C      6.4008     6.0000    -0.4008     3.7840     3.7840    -0.0000
 25 N      7.3412     7.0000    -0.3412     2.9778     2.9778    -0.0000
 26 C      5.8063     6.0000     0.1937     3.7250     3.7250    -0.0000
 27 C      6.0523     6.0000    -0.0523     3.8727     3.8727    -0.0000
 28 C      5.9590     6.0000     0.0410     3.8056     3.8056    -0.0000
 29 C      5.8944     6.0000     0.1056     3.7853     3.7853     0.0000
 30 C      6.4306     6.0000    -0.4306     3.8738     3.8738    -0.0000
 31 C      6.2192     6.0000    -0.2192     3.8364     3.8364    -0.0000
 32 C      6.4169     6.0000    -0.4169     3.8641     3.8641     0.0000
 33 N      7.4072     7.0000    -0.4072     2.9944     2.9944     0.0000
 34 C      5.7784     6.0000     0.2216     3.7701     3.7701    -0.0000
 35 C      6.0853     6.0000    -0.0853     3.8906     3.8906     0.0000
 36 C      6.0266     6.0000    -0.0266     3.3944     3.3944    -0.0000
 37 C      5.7907     6.0000     0.2093     3.6237     3.6237     0.0000
 38 C      6.4409     6.0000    -0.4409     3.8415     3.8415     0.0000
 39 C      5.9202     6.0000     0.0798     4.4497     4.4497    -0.0000
 40 O      8.3258     8.0000    -0.3258     2.1930     2.1930     0.0000
 41 C      5.9883     6.0000     0.0117     3.4981     3.4981    -0.0000
 42 C      5.7098     6.0000     0.2902     4.2704     4.2704     0.0000
 43 O      8.3624     8.0000    -0.3624     2.1321     2.1321    -0.0000
 44 O      8.2640     8.0000    -0.2640     2.1159     2.1159     0.0000
 45 C      6.2334     6.0000    -0.2334     3.8321     3.8321     0.0000
 46 C      6.0937     6.0000    -0.0937     3.8365     3.8365    -0.0000
 47 C      6.2230     6.0000    -0.2230     3.7486     3.7486    -0.0000
 48 C      5.9408     6.0000     0.0592     3.6780     3.6780     0.0000
 49 C      6.4067     6.0000    -0.4067     3.8629     3.8629    -0.0000
 50 C      6.1932     6.0000    -0.1932     3.7920     3.7920    -0.0000
 51 C      6.2762     6.0000    -0.2762     3.8073     3.8073    -0.0000
 52 C      6.2252     6.0000    -0.2252     3.8071     3.8071    -0.0000
 53 C      5.9681     6.0000     0.0319     3.7573     3.7573    -0.0000
 54 C      6.4382     6.0000    -0.4382     3.8521     3.8521     0.0000
 55 C      6.2207     6.0000    -0.2207     3.8192     3.8192    -0.0000
 56 C      6.2509     6.0000    -0.2509     3.8555     3.8555     0.0000
 57 C      6.2198     6.0000    -0.2198     3.8205     3.8205     0.0000
 58 C      5.9670     6.0000     0.0330     3.7611     3.7611     0.0000
 59 C      6.4383     6.0000    -0.4383     3.8524     3.8524    -0.0000
 60 C      6.2195     6.0000    -0.2195     3.8156     3.8156    -0.0000
 61 C      6.2508     6.0000    -0.2508     3.8507     3.8507    -0.0000
 62 C      6.2144     6.0000    -0.2144     3.7778     3.7778    -0.0000
 63 C      5.9859     6.0000     0.0141     3.7779     3.7779    -0.0000
 64 C      6.4151     6.0000    -0.4151     3.8389     3.8389     0.0000
 65 C      6.3954     6.0000    -0.3954     3.8506     3.8506    -0.0000
 66 H      0.8530     1.0000     0.1470     0.9773     0.9773     0.0000
 67 H      0.8302     1.0000     0.1698     1.0054     1.0054     0.0000
 68 H      0.8332     1.0000     0.1668     0.9606     0.9606    -0.0000
 69 H      0.8719     1.0000     0.1281     0.9691     0.9691    -0.0000
 70 H      0.8736     1.0000     0.1264     0.9629     0.9629    -0.0000
 71 H      0.8649     1.0000     0.1351     0.9701     0.9701    -0.0000
 72 H      0.8604     1.0000     0.1396     0.9669     0.9669     0.0000
 73 H      0.8617     1.0000     0.1383     0.9667     0.9667    -0.0000
 74 H      0.8601     1.0000     0.1399     0.9714     0.9714     0.0000
 75 H      0.8562     1.0000     0.1438     0.9872     0.9872     0.0000
 76 H      0.8404     1.0000     0.1596     0.9737     0.9737    -0.0000
 77 H      0.8521     1.0000     0.1479     0.9827     0.9827    -0.0000
 78 H      0.8427     1.0000     0.1573     0.9549     0.9549     0.0000
 79 H      0.8366     1.0000     0.1634     0.9489     0.9489    -0.0000
 80 H      0.8533     1.0000     0.1467     0.9742     0.9742    -0.0000
 81 H      0.8545     1.0000     0.1455     0.9910     0.9910     0.0000
 82 H      0.8485     1.0000     0.1515     0.9641     0.9641    -0.0000
 83 H      0.8451     1.0000     0.1549     0.9644     0.9644     0.0000
 84 H      0.8763     1.0000     0.1237     0.9623     0.9623     0.0000
 85 H      0.8903     1.0000     0.1097     0.9670     0.9670    -0.0000
 86 H      0.8638     1.0000     0.1362     0.9667     0.9667    -0.0000
 87 H      0.8657     1.0000     0.1343     0.9651     0.9651     0.0000
 88 H      0.8641     1.0000     0.1359     0.9707     0.9707     0.0000
 89 H      0.8830     1.0000     0.1170     0.9702     0.9702    -0.0000
 90 H      0.8803     1.0000     0.1197     0.9650     0.9650    -0.0000
 91 H      0.8643     1.0000     0.1357     0.9646     0.9646     0.0000
 92 H      0.8692     1.0000     0.1308     0.9646     0.9646    -0.0000
 93 H      0.8701     1.0000     0.1299     0.9676     0.9676    -0.0000
 94 H      0.8549     1.0000     0.1451     0.9803     0.9803     0.0000
 95 H      0.8465     1.0000     0.1535     0.9522     0.9522     0.0000
 96 H      0.8502     1.0000     0.1498     0.9540     0.9540    -0.0000
 97 H      0.8537     1.0000     0.1463     0.9908     0.9908     0.0000
 98 H      0.8439     1.0000     0.1561     0.9623     0.9623     0.0000
 99 H      0.8519     1.0000     0.1481     0.9609     0.9609     0.0000
100 H      0.8494     1.0000     0.1506     0.9621     0.9621    -0.0000
101 H      0.8545     1.0000     0.1455     0.9831     0.9831     0.0000
102 H      0.8340     1.0000     0.1660     0.9506     0.9506     0.0000
103 H      0.8608     1.0000     0.1392     0.9800     0.9800    -0.0000
104 H      0.8610     1.0000     0.1390     0.9609     0.9609    -0.0000
105 H      0.8650     1.0000     0.1350     0.9719     0.9719    -0.0000
106 H      0.8518     1.0000     0.1482     0.9593     0.9593    -0.0000
107 H      0.8775     1.0000     0.1225     0.9767     0.9767    -0.0000
108 H      0.8779     1.0000     0.1221     0.9691     0.9691    -0.0000
109 H      0.8718     1.0000     0.1282     0.9602     0.9602     0.0000
110 H      0.8855     1.0000     0.1145     0.9740     0.9740    -0.0000
111 H      0.8891     1.0000     0.1109     0.9725     0.9725     0.0000
112 H      0.8938     1.0000     0.1062     0.9756     0.9756     0.0000
113 H      0.9229     1.0000     0.0771     0.9679     0.9679    -0.0000
114 H      0.8675     1.0000     0.1325     0.9663     0.9663    -0.0000
115 H      0.8820     1.0000     0.1180     0.9708     0.9708     0.0000
116 H      0.8685     1.0000     0.1315     0.9659     0.9659    -0.0000
117 H      0.8924     1.0000     0.1076     0.9724     0.9724    -0.0000
118 H      0.8959     1.0000     0.1041     0.9752     0.9752    -0.0000
119 H      0.8817     1.0000     0.1183     0.9641     0.9641     0.0000
120 H      0.8988     1.0000     0.1012     0.9702     0.9702     0.0000
121 H      0.8929     1.0000     0.1071     0.9724     0.9724    -0.0000
122 H      0.8965     1.0000     0.1035     0.9754     0.9754    -0.0000
123 H      0.9248     1.0000     0.0752     0.9680     0.9680     0.0000
124 H      0.8678     1.0000     0.1322     0.9659     0.9659    -0.0000
125 H      0.8828     1.0000     0.1172     0.9710     0.9710    -0.0000
126 H      0.8685     1.0000     0.1315     0.9663     0.9663    -0.0000
127 H      0.8930     1.0000     0.1070     0.9721     0.9721     0.0000
128 H      0.8966     1.0000     0.1034     0.9752     0.9752     0.0000
129 H      0.8799     1.0000     0.1201     0.9616     0.9616    -0.0000
130 H      0.8998     1.0000     0.1002     0.9698     0.9698     0.0000
131 H      0.8947     1.0000     0.1053     0.9716     0.9716     0.0000
132 H      0.8960     1.0000     0.1040     0.9758     0.9758     0.0000
133 H      0.9233     1.0000     0.0767     0.9609     0.9609    -0.0000
134 H      0.8734     1.0000     0.1266     0.9686     0.9686    -0.0000
135 H      0.8833     1.0000     0.1167     0.9720     0.9720     0.0000
136 H      0.8705     1.0000     0.1295     0.9652     0.9652    -0.0000
137 H      0.8739     1.0000     0.1261     0.9687     0.9687    -0.0000
138 H      0.8760     1.0000     0.1240     0.9687     0.9687    -0.0000
139 H      0.8835     1.0000     0.1165     0.9717     0.9717    -0.0000

  Mayer bond orders larger than 0.100000
B(  0-Mg,  5-N ) :   0.4356 B(  0-Mg, 16-N ) :   0.5823 B(  0-Mg, 25-N ) :   0.4403 
B(  0-Mg, 33-N ) :   0.5982 B(  1-C ,  6-C ) :   1.3961 B(  1-C , 37-C ) :   1.1579 
B(  1-C , 41-C ) :   0.9277 B(  2-C ,  9-C ) :   1.5010 B(  2-C , 17-C ) :   1.2484 
B(  2-C , 66-H ) :   0.9228 B(  3-C , 20-C ) :   1.3500 B(  3-C , 26-C ) :   1.4052 
B(  3-C , 67-H ) :   0.9181 B(  4-C , 29-C ) :   1.4882 B(  4-C , 34-C ) :   1.2470 
B(  4-C , 68-H ) :   0.9493 B(  5-N ,  6-C ) :   1.0834 B(  5-N ,  9-C ) :   1.2399 
B(  6-C ,  7-C ) :   0.9959 B(  7-C ,  8-C ) :   0.9631 B(  7-C , 11-C ) :   0.8715 
B(  7-C , 69-H ) :   0.9820 B(  8-C ,  9-C ) :   0.9756 B(  8-C , 10-C ) :   0.8802 
B(  8-C , 70-H ) :   0.9846 B( 10-C , 71-H ) :   0.9763 B( 10-C , 72-H ) :   0.9765 
B( 10-C , 73-H ) :   0.9800 B( 11-C , 12-C ) :   0.9417 B( 11-C , 74-H ) :   0.9684 
B( 11-C , 75-H ) :   0.9810 B( 12-C , 13-C ) :   0.9984 B( 12-C , 76-H ) :   0.9286 
B( 12-C , 77-H ) :   0.9530 B( 13-C , 14-O ) :   1.9836 B( 13-C , 15-O ) :   1.2426 
B( 15-O , 46-C ) :   0.8374 B( 16-N , 17-C ) :   1.1855 B( 16-N , 20-C ) :   1.2087 
B( 17-C , 18-C ) :   1.2517 B( 18-C , 19-C ) :   1.5648 B( 18-C , 21-C ) :   0.8689 
B( 19-C , 20-C ) :   1.2199 B( 19-C , 22-C ) :   0.9436 B( 21-C , 78-H ) :   0.9925 
B( 21-C , 79-H ) :   0.9700 B( 21-C , 80-H ) :   0.9774 B( 22-C , 23-O ) :   1.9919 
B( 22-C , 24-C ) :   1.0030 B( 24-C , 81-H ) :   0.9737 B( 24-C , 82-H ) :   0.9616 
B( 24-C , 83-H ) :   0.9407 B( 25-N , 26-C ) :   1.2454 B( 25-N , 29-C ) :   1.1721 
B( 26-C , 27-C ) :   0.9789 B( 27-C , 28-C ) :   0.9616 B( 27-C , 30-C ) :   0.8903 
B( 27-C , 84-H ) :   0.9830 B( 28-C , 29-C ) :   0.9792 B( 28-C , 31-C ) :   0.9028 
B( 28-C , 85-H ) :   0.9734 B( 30-C , 86-H ) :   0.9795 B( 30-C , 87-H ) :   0.9743 
B( 30-C , 88-H ) :   0.9790 B( 31-C , 32-C ) :   0.9455 B( 31-C , 89-H ) :   0.9747 
B( 31-C , 90-H ) :   0.9742 B( 32-C , 91-H ) :   0.9788 B( 32-C , 92-H ) :   0.9755 
B( 32-C , 93-H ) :   0.9729 B( 33-N , 34-C ) :   1.1402 B( 33-N , 37-C ) :   1.2466 
B( 34-C , 35-C ) :   1.3378 B( 35-C , 36-C ) :   1.5194 B( 35-C , 38-C ) :   0.8509 
B( 36-C , 37-C ) :   1.2012 B( 36-C , 39-C ) :   0.9461 B( 36-C , 40-O ) :  -0.1348 
B( 36-C , 41-C ) :  -0.1115 B( 38-C , 94-H ) :   1.0003 B( 38-C , 95-H ) :   0.9753 
B( 38-C , 96-H ) :   0.9805 B( 39-C , 40-O ) :   2.2586 B( 39-C , 41-C ) :   0.9769 
B( 41-C , 42-C ) :   0.9368 B( 41-C , 97-H ) :   0.9353 B( 42-C , 43-O ) :   2.0282 
B( 42-C , 44-O ) :   1.2248 B( 44-O , 45-C ) :   0.8747 B( 45-C , 98-H ) :   0.9668 
B( 45-C , 99-H ) :   0.9715 B( 45-C ,100-H ) :   0.9718 B( 46-C , 47-C ) :   0.9562 
B( 46-C ,101-H ) :   0.9885 B( 46-C ,102-H ) :   0.9754 B( 47-C , 48-C ) :   1.8297 
B( 47-C ,103-H ) :   0.9608 B( 48-C , 49-C ) :   0.9323 B( 48-C , 50-C ) :   0.9377 
B( 49-C ,104-H ) :   0.9674 B( 49-C ,105-H ) :   0.9844 B( 49-C ,106-H ) :   0.9642 
B( 50-C , 51-C ) :   0.9208 B( 50-C ,107-H ) :   0.9867 B( 50-C ,108-H ) :   0.9807 
B( 51-C , 52-C ) :   0.9451 B( 51-C ,109-H ) :   0.9878 B( 51-C ,110-H ) :   0.9729 
B( 52-C , 53-C ) :   0.9635 B( 52-C ,111-H ) :   0.9842 B( 52-C ,112-H ) :   0.9659 
B( 53-C , 54-C ) :   0.9226 B( 53-C , 55-C ) :   0.9662 B( 53-C ,113-H ) :   0.9709 
B( 54-C ,114-H ) :   0.9855 B( 54-C ,115-H ) :   0.9687 B( 54-C ,116-H ) :   0.9853 
B( 55-C , 56-C ) :   0.9595 B( 55-C ,117-H ) :   0.9849 B( 55-C ,118-H ) :   0.9673 
B( 56-C , 57-C ) :   0.9605 B( 56-C ,119-H ) :   0.9863 B( 56-C ,120-H ) :   0.9698 
B( 57-C , 58-C ) :   0.9670 B( 57-C ,121-H ) :   0.9852 B( 57-C ,122-H ) :   0.9666 
B( 58-C , 59-C ) :   0.9224 B( 58-C , 60-C ) :   0.9671 B( 58-C ,123-H ) :   0.9704 
B( 59-C ,124-H ) :   0.9855 B( 59-C ,125-H ) :   0.9687 B( 59-C ,126-H ) :   0.9855 
B( 60-C , 61-C ) :   0.9581 B( 60-C ,127-H ) :   0.9853 B( 60-C ,128-H ) :   0.9661 
B( 61-C , 62-C ) :   0.9537 B( 61-C ,129-H ) :   0.9870 B( 61-C ,130-H ) :   0.9678 
B( 62-C , 63-C ) :   0.9576 B( 62-C ,131-H ) :   0.9784 B( 62-C ,132-H ) :   0.9731 
B( 63-C , 64-C ) :   0.9428 B( 63-C , 65-C ) :   0.9589 B( 63-C ,133-H ) :   0.9734 
B( 64-C ,134-H ) :   0.9820 B( 64-C ,135-H ) :   0.9698 B( 64-C ,136-H ) :   0.9824 
B( 65-C ,137-H ) :   0.9858 B( 65-C ,138-H ) :   0.9820 B( 65-C ,139-H ) :   0.9708 


-------
TIMINGS
-------

Total SCF time: 0 days 2 hours 43 min 33 sec 

Total time                  ....    9813.621 sec
Sum of individual times     ....    9483.989 sec  ( 96.6%)

SCF preparation             ....      19.025 sec  (  0.2%)
Fock matrix formation       ....    9343.640 sec  ( 95.2%)
  Startup                   ....       0.823 sec  (  0.0% of F)
  Split-RI-J                ....     434.947 sec  (  4.7% of F)
  Chain of spheres X        ....    8329.317 sec  ( 89.1% of F)
  XC integration            ....     363.412 sec  (  3.9% of F)
    XC Preparation          ....       0.000 sec  (  0.0% of XC)
    Basis function eval.    ....     110.497 sec  ( 30.4% of XC)
    Density eval.           ....     133.062 sec  ( 36.6% of XC)
    XC-Functional eval.     ....      13.650 sec  (  3.8% of XC)
    XC-Potential eval.      ....      94.865 sec  ( 26.1% of XC)
  CPCM terms                ....     545.973 sec  (  5.8% of F)
Diagonalization             ....       0.000 sec  (  0.0%)
Density matrix formation    ....       8.122 sec  (  0.1%)
Total Energy calculation    ....       3.661 sec  (  0.0%)
Population analysis         ....       3.722 sec  (  0.0%)
Orbital Transformation      ....      10.821 sec  (  0.1%)
Orbital Orthonormalization  ....       0.000 sec  (  0.0%)
DIIS solution               ....      49.405 sec  (  0.5%)
SOSCF solution              ....      37.992 sec  (  0.4%)
Finished LeanSCF after 9824.8 sec

Maximum memory used throughout the entire LEANSCF-calculation: 703.7 MB


           ************************************************************
           *        Program running with 4 parallel MPI-processes     *
           *              working on a common directory               *
           ************************************************************

------------------------------------------------------------------------------
                         ORCA PROPERTY INTEGRAL CALCULATIONS
------------------------------------------------------------------------------

GBWName                                   ... tddft.gbw
Number of atoms                           ...    140
Number of basis functions                 ...   2491
Max core memory                           ...   2200 MB

Dipole integrals                          ... YES
Quadrupole integrals                      ...  NO
Linear momentum integrals                 ... YES
Angular momentum integrals                ... YES
Higher moments length integrals           ...  NO
Higher moments velocity integrals         ...  NO
Kinetic energy integrals                  ...  NO
GIAO right hand sides                     ...  NO
GIAO dipole derivative integrals          ...  NO
SOC integrals                             ...  NO
EPR diamagnetic integrals (GIAO)          ...  NO
EPR gauge integrals                       ...  NO
Field gradient integrals                  ...  NO (   0 nuclei)
Spin-dipole/Fermi contact integrals       ...  NO (   0 nuclei)
Contact density integrals                 ...  NO (   0 nuclei)
Nucleus-orbit integrals                   ...  NO (   0 nuclei)
Geometric perturbations                   ...  NO ( 140 nuclei)

Choice of electric origin   ... Center of mass
Position of electric origin ... ( 74.6342, 99.1885, 41.9481) 
Choice of magnetic origin   ... GIAO
Position of magnetic origin ... (  0.0000,  0.0000,  0.0000) 

Calculating integrals                     ... Electric Dipole (Length)     done (  0.6 sec)
Calculating integrals                     ... Linear Momentum              done (  1.2 sec)
Calculating integrals                     ... Angular Momentum  (ElOri)    done (  1.1 sec)

Property integrals calculated in   3.0 sec

Maximum memory used throughout the entire PROPINT-calculation: 507.9 MB


           ************************************************************
           *        Program running with 4 parallel MPI-processes     *
           *              working on a common directory               *
           ************************************************************
------------------------------------------------------------------------------
                          ORCA TD-DFT CALCULATION
------------------------------------------------------------------------------

Input orbitals are from        ... tddft.gbw
CI-vector output               ... tddft.cis
Solver                         ... FN-2001
Tamm-Dancoff approximation     ... deactivated
RPA-Integral strategy          ... AO-integrals
Integral handling              ... AO integral Direct
Max. core memory used          ... 2200 MB
Reference state                ... RHF
Generation of triplets         ... off
Follow IRoot                   ... off
Number of operators            ... 1
Orbital ranges used for CIS calculation:
 Operator 0:  Orbitals  66...245  to 246...2490
XAS localization array:
 Operator 0:  Orbitals  -1... -1

-------------------
XC-INTEGRATION GRID
-------------------

General Integration Accuracy     IntAcc      ... 3.467
Radial Grid Type                 RadialGrid  ... OptM3 with GC (2021)
Angular Grid (max. ang.)         AngularGrid ... 3 (Lebedev-194)
Angular grid pruning method      GridPruning ... 4 (adaptive)
Weight generation scheme         WeightScheme... mBecke (2022)
Basis function cutoff            BFCut       ... 1.0000e-11
Integration weight cutoff        WCut        ... 1.0000e-14
Partially contracted basis set               ... off
Rotationally invariant grid construction     ... off
Angular grids for H and He will be reduced by one unit

Total number of grid points                  ...   233979
Total number of batches                      ...     3734
Average number of points per batch           ...       62
Average number of grid points per atom       ...     1671

---------------------
COSX-INTEGRATION GRID
---------------------

General Integration Accuracy     IntAcc      ... 3.067
Radial Grid Type                 RadialGrid  ... OptM3 with GC (2021)
Angular Grid (max. ang.)         AngularGrid ... 2 (Lebedev-110)
Angular grid pruning method      GridPruning ... 4 (adaptive)
Weight generation scheme         WeightScheme... mBecke (2022)
Basis function cutoff            BFCut       ... 1.0000e-11
Integration weight cutoff        WCut        ... 1.0000e-14
Partially contracted basis set               ... on
Rotationally invariant grid construction     ... off
Angular grids for H and He will be reduced by one unit

Total number of grid points                  ...    91933
Total number of batches                      ...      797
Average number of points per batch           ...      115
Average number of grid points per atom       ...      657

---------------
TD-DFT XC SETUP
---------------

DFT calculation                         ... on
Name of the grid file                   ... tddft.grid_cis.tmp
RI-approximation                        ... on
Aux-basis dimension                     ... 0
Exchange functional (TD-DFT)            ... WB88
Correlation functional (TD-DFT)         ... LYP
 LDA part of GGA corr.  LDAOpt (TD-DFT) ... VWN-5
Hybrid DFT                              ... on
   Exchange mixing (TD-DFT)             ...  0.190
   GGA exch. scaling (TD-DFT)           ...  0.350
   GGA corr. scaling (TD-DFT)           ...  0.810
Range-Separated Exchange                ... on
   Range Range separation parameter mu  .... 0.330
   Max. amount of RS exchange (TD-DFT)  ...  0.460

Building densities             ... done
Calculating rho(r) on the grid ... done
Building xc-kernel on the grid ... done
                    *** TD-DFT CALCULATION INITIALIZED ***

---------------------------------
    LR-CPCM (non-equilibrium)
---------------------------------

Setting up CPCM data             ... done

-------------------
RPA-DIAGONALIZATION
-------------------

Dimension of the (A+B)(A-B) eigenvalue problem ... 404100
Number of roots to be determined               ...     30
Maximum size of the expansion space            ...    900
Convergence tolerance for the residual         ...    2.500e-07
Convergence tolerance for the energies         ...    2.500e-07
Orthogonality tolerance                        ...    1.000e-14
Constructing the preconditioner                ... o.k.
Building the initial guess                     ... o.k.
Number of trial vectors determined             ...    900


                       ****Iteration    0****
   Time for iteration     :  TOTAL=8779.0 TRAFO=49.8 RIJ=767.5 COSX=5645.3 XC=477.5 CPCM=1819.5
   Size of expansion space: 90
   Lowest Energy          :     0.074550154238
   Maximum Energy change  :     0.220540498034 (vector 29)
   Maximum residual norm  :     0.043335650735

                       ****Iteration    1****
   Time for iteration     :  TOTAL=2873.7 TRAFO=16.4 RIJ=254.5 COSX=1819.8 XC=172.9 CPCM=602.9
   Size of expansion space: 120
   Lowest Energy          :     0.059174221898
   Maximum Energy change  :     0.015375932340 (vector 0)
   Maximum residual norm  :     0.004918410337

                       ****Iteration    2****
   Time for iteration     :  TOTAL=2891.3 TRAFO=16.1 RIJ=269.6 COSX=1824.0 XC=179.5 CPCM=595.2
   Size of expansion space: 150
   Lowest Energy          :     0.057495244126
   Maximum Energy change  :     0.006226832692 (vector 8)
   Maximum residual norm  :     0.005176769774

                       ****Iteration    3****
   Time for iteration     :  TOTAL=2923.4 TRAFO=16.1 RIJ=272.8 COSX=1818.0 XC=187.8 CPCM=621.8
   Size of expansion space: 180
   Lowest Energy          :     0.057284889739
   Maximum Energy change  :     0.005877654432 (vector 23)
   Maximum residual norm  :     0.001390814440

                       ****Iteration    4****
   Time for iteration     :  TOTAL=2908.6 TRAFO=16.3 RIJ=276.3 COSX=1822.3 XC=192.0 CPCM=594.6
   Size of expansion space: 210
   Lowest Energy          :     0.057246733711
   Maximum Energy change  :     0.001513440626 (vector 24)
   Maximum residual norm  :     0.000504049902

                       ****Iteration    5****
   Time for iteration     :  TOTAL=2978.7 TRAFO=16.2 RIJ=282.9 COSX=1880.7 XC=194.1 CPCM=597.9
   Size of expansion space: 240
   Lowest Energy          :     0.057243602970
   Maximum Energy change  :     0.000522274864 (vector 25)
   Maximum residual norm  :     0.000184824375

                       ****Iteration    6****
   Time for iteration     :  TOTAL=2923.6 TRAFO=15.9 RIJ=260.9 COSX=1831.7 XC=184.5 CPCM=624.0
   Size of expansion space: 270
   Lowest Energy          :     0.057242687477
   Maximum Energy change  :     0.000322150741 (vector 29)
   Maximum residual norm  :     0.000690066131

                       ****Iteration    7****
   Time for iteration     :  TOTAL=2613.4 TRAFO=14.6 RIJ=249.1 COSX=1632.0 XC=169.9 CPCM=541.5
   Size of expansion space: 300
   Lowest Energy          :     0.057242518404
   Maximum Energy change  :     0.000728118335 (vector 29)
   Maximum residual norm  :     0.000245732255

                       ****Iteration    8****
   Time for iteration     :  TOTAL=2636.5 TRAFO=14.6 RIJ=250.4 COSX=1648.3 XC=173.4 CPCM=543.8
   Size of expansion space: 330
   Lowest Energy          :     0.057242510277
   Maximum Energy change  :     0.000211746295 (vector 29)
   Maximum residual norm  :     0.000071717863

                       ****Iteration    9****
   Time for iteration     :  TOTAL=2645.4 TRAFO=14.7 RIJ=251.6 COSX=1653.6 XC=175.0 CPCM=544.5
   Size of expansion space: 360
   Lowest Energy          :     0.057242504243
   Maximum Energy change  :     0.000044195029 (vector 29)
   Maximum residual norm  :     0.000010097624

                       ****Iteration   10****
   Time for iteration     :  TOTAL=2667.2 TRAFO=15.0 RIJ=253.1 COSX=1671.9 XC=172.8 CPCM=548.5
   Size of expansion space: 390
   Lowest Energy          :     0.057242503940
   Maximum Energy change  :     0.000010516350 (vector 29)
   Maximum residual norm  :     0.000004109761

                       ****Iteration   11****
   Time for iteration     :  TOTAL=2686.1 TRAFO=14.8 RIJ=252.8 COSX=1687.8 XC=176.3 CPCM=548.3
   Size of expansion space: 420
   Lowest Energy          :     0.057242503894
   Maximum Energy change  :     0.000002614571 (vector 29)
   Maximum residual norm  :     0.000000566952

                       ****Iteration   12****
   Time for iteration     :  TOTAL=2678.4 TRAFO=14.8 RIJ=254.6 COSX=1678.6 XC=176.6 CPCM=547.7
   Size of expansion space: 450
   Lowest Energy          :     0.057242503881
   Maximum Energy change  :     0.000000520830 (vector 29)
   Maximum residual norm  :     0.000000269847

                       ****Iteration   13****
   Time for iteration     :  TOTAL=2661.5 TRAFO=14.7 RIJ=254.1 COSX=1666.2 XC=173.3 CPCM=547.3
   Size of expansion space: 480
   Lowest Energy          :     0.057242503880
   Maximum Energy change  :     0.000000142667 (vector 29)

         *** CONVERGENCE OF ENERGIES REACHED ***

Storing the converged CI vectors               ... tddft.cis1

                 *** DAVIDSON DONE ***

Total time for solving the RPA problem: 45707.797sec

--------------------------------
TD-DFT EXCITED STATES (SINGLETS)
--------------------------------

the weight of the individual excitations are printed if larger than 1.0e-02

STATE  1:  E=   0.057243 au      1.558 eV    12563.3 cm**-1 <S**2> =   0.000000 Mult 1
   244a -> 247a  :     0.019020 
   245a -> 246a  :     0.963839 

STATE  2:  E=   0.081480 au      2.217 eV    17882.9 cm**-1 <S**2> =   0.000000 Mult 1
   244a -> 246a  :     0.862683 
   245a -> 247a  :     0.111115 

STATE  3:  E=   0.125206 au      3.407 eV    27479.6 cm**-1 <S**2> =   0.000000 Mult 1
   241a -> 246a  :     0.042694 
   243a -> 246a  :     0.019808 
   244a -> 246a  :     0.094287 
   245a -> 247a  :     0.809389 

STATE  4:  E=   0.130158 au      3.542 eV    28566.4 cm**-1 <S**2> =   0.000000 Mult 1
   240a -> 246a  :     0.020665 
   241a -> 246a  :     0.077679 
   242a -> 246a  :     0.124202 
   243a -> 246a  :     0.695326 
   244a -> 246a  :     0.012546 
   245a -> 247a  :     0.035770 

STATE  5:  E=   0.138473 au      3.768 eV    30391.2 cm**-1 <S**2> =   0.000000 Mult 1
   239a -> 246a  :     0.016295 
   244a -> 247a  :     0.049030 
   245a -> 248a  :     0.834214 
   245a -> 249a  :     0.032014 

STATE  6:  E=   0.139605 au      3.799 eV    30639.7 cm**-1 <S**2> =   0.000000 Mult 1
   240a -> 246a  :     0.045106 
   241a -> 246a  :     0.749743 
   242a -> 246a  :     0.025809 
   243a -> 246a  :     0.097118 
   244a -> 246a  :     0.016058 
   245a -> 247a  :     0.011244 
   245a -> 248a  :     0.012944 

STATE  7:  E=   0.141438 au      3.849 eV    31042.0 cm**-1 <S**2> =   0.000000 Mult 1
   238a -> 246a  :     0.011891 
   239a -> 246a  :     0.531589 
   239a -> 247a  :     0.065417 
   239a -> 248a  :     0.128325 
   239a -> 249a  :     0.133950 
   240a -> 246a  :     0.035382 
   245a -> 248a  :     0.020459 

STATE  8:  E=   0.145171 au      3.950 eV    31861.5 cm**-1 <S**2> =   0.000000 Mult 1
   238a -> 246a  :     0.566984 
   238a -> 248a  :     0.238471 
   238a -> 249a  :     0.061872 
   239a -> 246a  :     0.023523 
   240a -> 246a  :     0.042863 

STATE  9:  E=   0.146143 au      3.977 eV    32074.8 cm**-1 <S**2> =   0.000000 Mult 1
   241a -> 246a  :     0.013227 
   244a -> 247a  :     0.773150 
   245a -> 246a  :     0.022222 
   245a -> 248a  :     0.070031 
   245a -> 249a  :     0.079031 

STATE 10:  E=   0.155096 au      4.220 eV    34039.5 cm**-1 <S**2> =   0.000000 Mult 1
   235a -> 246a  :     0.034460 
   238a -> 246a  :     0.049918 
   239a -> 246a  :     0.022941 
   240a -> 246a  :     0.742496 
   241a -> 246a  :     0.062495 
   244a -> 248a  :     0.013012 
   245a -> 249a  :     0.013947 

STATE 11:  E=   0.158185 au      4.304 eV    34717.7 cm**-1 <S**2> =   0.000000 Mult 1
   237a -> 246a  :     0.010036 
   240a -> 246a  :     0.011106 
   244a -> 247a  :     0.110674 
   245a -> 249a  :     0.796614 

STATE 12:  E=   0.161862 au      4.404 eV    35524.5 cm**-1 <S**2> =   0.000000 Mult 1
   235a -> 246a  :     0.785711 
   240a -> 246a  :     0.026121 
   244a -> 248a  :     0.070914 
   245a -> 249a  :     0.012035 

STATE 13:  E=   0.163690 au      4.454 eV    35925.8 cm**-1 <S**2> =   0.000000 Mult 1
   235a -> 246a  :     0.067620 
   237a -> 246a  :     0.013848 
   240a -> 246a  :     0.014511 
   240a -> 249a  :     0.010353 
   244a -> 248a  :     0.789480 
   245a -> 249a  :     0.012299 

STATE 14:  E=   0.166444 au      4.529 eV    36530.3 cm**-1 <S**2> =   0.000000 Mult 1
   245a -> 250a  :     0.939187 
   245a -> 251a  :     0.019702 

STATE 15:  E=   0.168427 au      4.583 eV    36965.5 cm**-1 <S**2> =   0.000000 Mult 1
   237a -> 246a  :     0.893989 
   239a -> 246a  :     0.017022 
   244a -> 248a  :     0.023668 
   245a -> 248a  :     0.010813 

STATE 16:  E=   0.180459 au      4.911 eV    39606.1 cm**-1 <S**2> =   0.000000 Mult 1
   242a -> 246a  :     0.833138 
   243a -> 246a  :     0.151747 

STATE 17:  E=   0.181411 au      4.936 eV    39815.1 cm**-1 <S**2> =   0.000000 Mult 1
   239a -> 246a  :     0.014872 
   240a -> 247a  :     0.010695 
   240a -> 248a  :     0.020037 
   243a -> 248a  :     0.010630 
   244a -> 249a  :     0.772692 
   245a -> 251a  :     0.011653 
   245a -> 252a  :     0.017052 
   245a -> 253a  :     0.047675 
   245a -> 254a  :     0.029583 

STATE 18:  E=   0.182634 au      4.970 eV    40083.6 cm**-1 <S**2> =   0.000000 Mult 1
   244a -> 249a  :     0.095731 
   245a -> 251a  :     0.046578 
   245a -> 252a  :     0.041777 
   245a -> 253a  :     0.456088 
   245a -> 254a  :     0.305789 

STATE 19:  E=   0.184954 au      5.033 eV    40592.8 cm**-1 <S**2> =   0.000000 Mult 1
   217a -> 246a  :     0.020134 
   223a -> 246a  :     0.016703 
   228a -> 246a  :     0.019087 
   231a -> 246a  :     0.765091 
   231a -> 249a  :     0.011870 
   233a -> 246a  :     0.012719 
   234a -> 246a  :     0.019905 

STATE 20:  E=   0.186616 au      5.078 eV    40957.6 cm**-1 <S**2> =   0.000000 Mult 1
   220a -> 246a  :     0.015868 
   222a -> 246a  :     0.016718 
   223a -> 246a  :     0.076911 
   231a -> 246a  :     0.017017 
   237a -> 246a  :     0.013376 
   238a -> 248a  :     0.014868 
   239a -> 246a  :     0.283154 
   239a -> 247a  :     0.117085 
   239a -> 248a  :     0.072311 
   239a -> 249a  :     0.215494 
   239a -> 261a  :     0.015183 
   244a -> 249a  :     0.023262 

STATE 21:  E=   0.189509 au      5.157 eV    41592.3 cm**-1 <S**2> =   0.000000 Mult 1
   244a -> 250a  :     0.024673 
   244a -> 252a  :     0.011832 
   245a -> 250a  :     0.011578 
   245a -> 251a  :     0.168935 
   245a -> 252a  :     0.631125 
   245a -> 253a  :     0.059023 
   245a -> 254a  :     0.040828 

STATE 22:  E=   0.192116 au      5.228 eV    42164.6 cm**-1 <S**2> =   0.000000 Mult 1
   244a -> 250a  :     0.888282 
   244a -> 251a  :     0.024459 
   245a -> 252a  :     0.013463 

STATE 23:  E=   0.192736 au      5.245 eV    42300.7 cm**-1 <S**2> =   0.000000 Mult 1
   220a -> 246a  :     0.054753 
   222a -> 246a  :     0.084600 
   223a -> 246a  :     0.433721 
   235a -> 248a  :     0.011217 
   238a -> 246a  :     0.085382 
   238a -> 248a  :     0.068235 
   238a -> 249a  :     0.055031 
   239a -> 246a  :     0.036893 
   239a -> 247a  :     0.023159 
   239a -> 248a  :     0.023607 
   239a -> 249a  :     0.023494 

STATE 24:  E=   0.195691 au      5.325 eV    42949.3 cm**-1 <S**2> =   0.000000 Mult 1
   241a -> 247a  :     0.013055 
   241a -> 248a  :     0.010382 
   243a -> 247a  :     0.012142 
   245a -> 253a  :     0.049588 
   245a -> 254a  :     0.083876 
   245a -> 255a  :     0.142162 
   245a -> 256a  :     0.557979 
   245a -> 257a  :     0.019027 
   245a -> 259a  :     0.017527 

STATE 25:  E=   0.199472 au      5.428 eV    43779.1 cm**-1 <S**2> =   0.000000 Mult 1
   220a -> 246a  :     0.032300 
   222a -> 246a  :     0.019650 
   223a -> 246a  :     0.127623 
   233a -> 246a  :     0.086871 
   235a -> 246a  :     0.021684 
   238a -> 246a  :     0.227888 
   238a -> 248a  :     0.220066 
   238a -> 249a  :     0.110380 
   238a -> 262a  :     0.012536 
   239a -> 246a  :     0.013856 

STATE 26:  E=   0.201141 au      5.473 eV    44145.4 cm**-1 <S**2> =   0.000000 Mult 1
   228a -> 246a  :     0.310349 
   233a -> 246a  :     0.240323 
   237a -> 248a  :     0.020164 
   240a -> 247a  :     0.017220 
   240a -> 248a  :     0.016864 
   241a -> 247a  :     0.037006 
   241a -> 248a  :     0.010343 
   241a -> 249a  :     0.071394 
   242a -> 247a  :     0.011821 
   242a -> 248a  :     0.013911 
   243a -> 247a  :     0.065440 
   243a -> 248a  :     0.062818 

STATE 27:  E=   0.202937 au      5.522 eV    44539.4 cm**-1 <S**2> =   0.000000 Mult 1
   228a -> 246a  :     0.076627 
   233a -> 246a  :     0.086354 
   240a -> 247a  :     0.029179 
   240a -> 248a  :     0.015280 
   240a -> 249a  :     0.025300 
   241a -> 247a  :     0.111596 
   241a -> 248a  :     0.018118 
   241a -> 249a  :     0.026013 
   242a -> 247a  :     0.064779 
   243a -> 247a  :     0.370807 
   244a -> 253a  :     0.038604 
   244a -> 254a  :     0.017464 
   245a -> 256a  :     0.013855 

STATE 28:  E=   0.205267 au      5.586 eV    45050.9 cm**-1 <S**2> =   0.000000 Mult 1
   240a -> 247a  :     0.113694 
   240a -> 249a  :     0.044212 
   241a -> 247a  :     0.122952 
   241a -> 248a  :     0.134548 
   242a -> 247a  :     0.011674 
   242a -> 249a  :     0.021441 
   243a -> 247a  :     0.068416 
   243a -> 249a  :     0.099331 
   244a -> 251a  :     0.016725 
   244a -> 252a  :     0.017784 
   244a -> 253a  :     0.148573 
   244a -> 254a  :     0.090378 
   245a -> 256a  :     0.011641 

STATE 29:  E=   0.206508 au      5.619 eV    45323.2 cm**-1 <S**2> =   0.000000 Mult 1
   228a -> 246a  :     0.056340 
   233a -> 246a  :     0.062577 
   241a -> 248a  :     0.118253 
   241a -> 249a  :     0.044951 
   242a -> 248a  :     0.029617 
   243a -> 248a  :     0.125213 
   243a -> 249a  :     0.038953 
   244a -> 253a  :     0.144964 
   244a -> 254a  :     0.098134 
   245a -> 253a  :     0.025705 
   245a -> 254a  :     0.041436 
   245a -> 255a  :     0.036371 
   245a -> 258a  :     0.012200 
   245a -> 259a  :     0.010074 
   245a -> 261a  :     0.010269 
   245a -> 262a  :     0.028208 

STATE 30:  E=   0.208008 au      5.660 eV    45652.4 cm**-1 <S**2> =   0.000000 Mult 1
   228a -> 246a  :     0.032842 
   240a -> 247a  :     0.014271 
   240a -> 248a  :     0.012350 
   241a -> 247a  :     0.079477 
   241a -> 248a  :     0.053616 
   241a -> 249a  :     0.030078 
   242a -> 247a  :     0.019797 
   242a -> 248a  :     0.025108 
   243a -> 247a  :     0.102496 
   243a -> 248a  :     0.112821 
   244a -> 253a  :     0.018376 
   244a -> 254a  :     0.024698 
   245a -> 251a  :     0.011901 
   245a -> 253a  :     0.093878 
   245a -> 254a  :     0.161610 
   245a -> 255a  :     0.051000 
   245a -> 258a  :     0.019780 
   245a -> 259a  :     0.013376 
   245a -> 261a  :     0.014020 
   245a -> 262a  :     0.017111 


-----------------------------
 TD-DFT-EXCITATION SPECTRA
-----------------------------

Center of mass = ( 74.6342, 99.1885, 41.9481)
Generating RPA transition densities
 done

----------------------------------------------------------------------------------------------------
                     ABSORPTION SPECTRUM VIA TRANSITION ELECTRIC DIPOLE MOMENTS    
----------------------------------------------------------------------------------------------------
     Transition      Energy     Energy  Wavelength fosc(D2)      D2        DX        DY        DZ   
                      (eV)      (cm-1)    (nm)                 (au**2)    (au)      (au)      (au)  
----------------------------------------------------------------------------------------------------
  0-1A  ->  1-1A    1.557648   12563.3   796.0   0.557336344  14.60461  -3.36310  -1.61070   0.83656
  0-1A  ->  2-1A    2.217194   17882.9   559.2   0.192986169   3.55275  -1.12739   1.44143  -0.45169
  0-1A  ->  3-1A    3.407032   27479.6   363.9   0.763298094   9.14450   1.76339  -2.35603   0.69577
  0-1A  ->  4-1A    3.541788   28566.4   350.1   0.074834877   0.86243  -0.64695   0.63934  -0.18744
  0-1A  ->  5-1A    3.768033   30391.2   329.0   0.128347783   1.39032   1.04248   0.54126  -0.10294
  0-1A  ->  6-1A    3.798832   30639.7   326.4   0.226964289   2.43865   1.17289  -0.99107   0.28417
  0-1A  ->  7-1A    3.848719   31042.0   322.1   0.014724096   0.15615  -0.39397  -0.00958   0.02917
  0-1A  ->  8-1A    3.950317   31861.5   313.9   0.003629642   0.03750  -0.13345  -0.14024  -0.00511
  0-1A  ->  9-1A    3.976767   32074.8   311.8   0.976850581  10.02628  -2.80934  -1.32176   0.62195
  0-1A  -> 10-1A    4.220365   34039.5   293.8   0.011404661   0.11030   0.22730   0.22058  -0.09989
  0-1A  -> 11-1A    4.304440   34717.7   288.0   0.175632077   1.66544  -0.43928   1.12787  -0.44764
  0-1A  -> 12-1A    4.404482   35524.5   281.5   0.018097934   0.16772  -0.02268  -0.38883   0.12654
  0-1A  -> 13-1A    4.454230   35925.8   278.4   0.055185364   0.50570   0.16297   0.65446  -0.22543
  0-1A  -> 14-1A    4.529174   36530.3   273.7   0.000932325   0.00840  -0.08614  -0.01432   0.02787
  0-1A  -> 15-1A    4.583133   36965.5   270.5   0.006116437   0.05447  -0.14889  -0.15054   0.09820
  0-1A  -> 16-1A    4.910533   39606.1   252.5   0.000276203   0.00230  -0.03490  -0.03164   0.00875
  0-1A  -> 17-1A    4.936440   39815.1   251.2   0.186218535   1.53975  -0.93744   0.79118  -0.18707
  0-1A  -> 18-1A    4.969733   40083.6   249.5   0.032894891   0.27017  -0.43792   0.27305  -0.06198
  0-1A  -> 19-1A    5.032867   40592.8   246.3   0.004627171   0.03753  -0.18720  -0.04740   0.01541
  0-1A  -> 20-1A    5.078092   40957.6   244.2   0.006496688   0.05222   0.15716  -0.14012   0.08880
  0-1A  -> 21-1A    5.156789   41592.3   240.4   0.007752036   0.06136  -0.16548  -0.17943   0.04217
  0-1A  -> 22-1A    5.227746   42164.6   237.2   0.001758101   0.01373   0.10826  -0.00555   0.04446
  0-1A  -> 23-1A    5.244612   42300.7   236.4   0.000075293   0.00059  -0.02246  -0.00637  -0.00638
  0-1A  -> 24-1A    5.325032   42949.3   232.8   0.000415589   0.00319   0.01924   0.04748   0.02369
  0-1A  -> 25-1A    5.427919   43779.1   228.4   0.001078694   0.00811  -0.08122   0.00335   0.03878
  0-1A  -> 26-1A    5.473333   44145.4   226.5   0.306762591   2.28766   1.32342  -0.65991   0.31743
  0-1A  -> 27-1A    5.522185   44539.4   224.5   0.065372690   0.48320   0.64449  -0.25378   0.05860
  0-1A  -> 28-1A    5.585599   45050.9   222.0   0.036539996   0.26702   0.40910   0.26589  -0.17017
  0-1A  -> 29-1A    5.619365   45323.2   220.6   0.159208073   1.15643  -0.84307   0.62400  -0.23727
  0-1A  -> 30-1A    5.660172   45652.4   219.0   0.165264922   1.19177  -0.91546   0.59473  -0.00237

----------------------------------------------------------------------------------------------------
                     ABSORPTION SPECTRUM VIA TRANSITION VELOCITY DIPOLE MOMENTS    
----------------------------------------------------------------------------------------------------
     Transition      Energy     Energy  Wavelength fosc(P2)      P2        PX        PY        PZ   
                      (eV)      (cm-1)    (nm)                 (au**2)    (au)      (au)      (au)  
----------------------------------------------------------------------------------------------------
  0-1A  ->  1-1A    1.557648   12563.3   796.0   0.555499432   0.04770   0.19221   0.09196  -0.04792
  0-1A  ->  2-1A    2.217194   17882.9   559.2   0.192442725   0.02352   0.09155  -0.11741   0.03679
  0-1A  ->  3-1A    3.407032   27479.6   363.9   0.761374527   0.14299  -0.22046   0.29471  -0.08681
  0-1A  ->  4-1A    3.541788   28566.4   350.1   0.074484150   0.01454   0.08407  -0.08291   0.02448
  0-1A  ->  5-1A    3.768033   30391.2   329.0   0.127052541   0.02639  -0.14342  -0.07488   0.01460
  0-1A  ->  6-1A    3.798832   30639.7   326.4   0.225865950   0.04730  -0.16296   0.13842  -0.03975
  0-1A  ->  7-1A    3.848719   31042.0   322.1   0.014853691   0.00315   0.05597   0.00274  -0.00332
  0-1A  ->  8-1A    3.950317   31861.5   313.9   0.003629127   0.00079   0.01933   0.02041   0.00026
  0-1A  ->  9-1A    3.976767   32074.8   311.8   0.973856606   0.21348   0.40969   0.19325  -0.09108
  0-1A  -> 10-1A    4.220365   34039.5   293.8   0.011339666   0.00264  -0.03521  -0.03404   0.01546
  0-1A  -> 11-1A    4.304440   34717.7   288.0   0.172897523   0.04102   0.06931  -0.17682   0.07041
  0-1A  -> 12-1A    4.404482   35524.5   281.5   0.018031822   0.00438   0.00384   0.06280  -0.02047
  0-1A  -> 13-1A    4.454230   35925.8   278.4   0.055086571   0.01353  -0.02718  -0.10697   0.03667
  0-1A  -> 14-1A    4.529174   36530.3   273.7   0.000919538   0.00023   0.01392   0.00319  -0.00507
  0-1A  -> 15-1A    4.583133   36965.5   270.5   0.006099248   0.00154   0.02491   0.02533  -0.01670
  0-1A  -> 16-1A    4.910533   39606.1   252.5   0.000269810   0.00007   0.00624   0.00560  -0.00164
  0-1A  -> 17-1A    4.936440   39815.1   251.2   0.186909334   0.05086   0.17074  -0.14335   0.03405
  0-1A  -> 18-1A    4.969733   40083.6   249.5   0.032852283   0.00900   0.07959  -0.05027   0.01175
  0-1A  -> 19-1A    5.032867   40592.8   246.3   0.004657887   0.00129   0.03469   0.00933  -0.00144
  0-1A  -> 20-1A    5.078092   40957.6   244.2   0.006529597   0.00183  -0.02909   0.02686  -0.01612
  0-1A  -> 21-1A    5.156789   41592.3   240.4   0.007764483   0.00221   0.03126   0.03420  -0.00773
  0-1A  -> 22-1A    5.227746   42164.6   237.2   0.001826263   0.00053  -0.02115   0.00082  -0.00885
  0-1A  -> 23-1A    5.244612   42300.7   236.4   0.000085247   0.00002   0.00461   0.00144   0.00117
  0-1A  -> 24-1A    5.325032   42949.3   232.8   0.000373589   0.00011  -0.00328  -0.00890  -0.00444
  0-1A  -> 25-1A    5.427919   43779.1   228.4   0.001025270   0.00031   0.01583  -0.00074  -0.00745
  0-1A  -> 26-1A    5.473333   44145.4   226.5   0.303983591   0.09172  -0.26432   0.13331  -0.06387
  0-1A  -> 27-1A    5.522185   44539.4   224.5   0.064301567   0.01957  -0.12952   0.05150  -0.01207
  0-1A  -> 28-1A    5.585599   45050.9   222.0   0.036298526   0.01118  -0.08353  -0.05484   0.03452
  0-1A  -> 29-1A    5.619365   45323.2   220.6   0.158638889   0.04914   0.17330  -0.12912   0.04936
  0-1A  -> 30-1A    5.660172   45652.4   219.0   0.162011464   0.05055   0.18830  -0.12285  -0.00007

------------------------------------------------------------------------------------------
                     CD SPECTRUM VIA TRANSITION ELECTRIC DIPOLE MOMENTS    
------------------------------------------------------------------------------------------
     Transition      Energy     Energy  Wavelength    R        MX        MY        MZ   
                      (eV)      (cm-1)    (nm)   (1e40*cgs)   (au)      (au)      (au)  
------------------------------------------------------------------------------------------
  0-1A  ->  1-1A    1.557648   12563.3   796.0   11.12967   0.19405   0.13419   1.01026
  0-1A  ->  2-1A    2.217194   17882.9   559.2    3.80195  -0.14387  -0.15791  -0.12699
  0-1A  ->  3-1A    3.407032   27479.6   363.9   12.32324   0.32142   0.07784  -0.58860
  0-1A  ->  4-1A    3.541788   28566.4   350.1    1.02959  -0.11513  -0.17738  -0.19600
  0-1A  ->  5-1A    3.768033   30391.2   329.0   53.63664  -0.11558  -0.20911  -1.16482
  0-1A  ->  6-1A    3.798832   30639.7   326.4   -0.13971   0.14636   0.07005  -0.35874
  0-1A  ->  7-1A    3.848719   31042.0   322.1  -22.62099  -0.12140   0.32902   0.11324
  0-1A  ->  8-1A    3.950317   31861.5   313.9   33.65837   0.41358   0.10890   0.18123
  0-1A  ->  9-1A    3.976767   32074.8   311.8  -38.98863   0.34237   0.23357   2.17582
  0-1A  -> 10-1A    4.220365   34039.5   293.8   -6.75535  -0.08715  -0.29665  -0.99678
  0-1A  -> 11-1A    4.304440   34717.7   288.0   -2.47618  -0.30939  -0.22015  -0.26281
  0-1A  -> 12-1A    4.404482   35524.5   281.5  -12.18305  -0.12322  -0.01167   0.14628
  0-1A  -> 13-1A    4.454230   35925.8   278.4   16.98004  -0.17439   0.16210   0.50430
  0-1A  -> 14-1A    4.529174   36530.3   273.7    0.38341   0.02975   0.01801   0.07203
  0-1A  -> 15-1A    4.583133   36965.5   270.5    3.90429   0.07447  -0.14578  -0.19489
  0-1A  -> 16-1A    4.910533   39606.1   252.5   -0.09601  -0.00111   0.00579   0.03981
  0-1A  -> 17-1A    4.936440   39815.1   251.2  -20.00548  -0.14191   0.03876   0.64825
  0-1A  -> 18-1A    4.969733   40083.6   249.5    7.25165  -0.06448  -0.27989  -0.52932
  0-1A  -> 19-1A    5.032867   40592.8   246.3   -0.29846  -0.00503   0.06986   0.19486
  0-1A  -> 20-1A    5.078092   40957.6   244.2   34.01280  -0.11052   0.24981  -0.22264
  0-1A  -> 21-1A    5.156789   41592.3   240.4   -7.63604  -0.01643  -0.07043   0.01993
  0-1A  -> 22-1A    5.227746   42164.6   237.2   -1.84963   0.06231  -0.04576  -0.06919
  0-1A  -> 23-1A    5.244612   42300.7   236.4    1.68342   0.11958   0.18460  -0.04571
  0-1A  -> 24-1A    5.325032   42949.3   232.8   -1.35074  -0.04183   0.01723   0.12041
  0-1A  -> 25-1A    5.427919   43779.1   228.4  -11.46578  -0.25892  -0.06787   0.09072
  0-1A  -> 26-1A    5.473333   44145.4   226.5   61.90957   0.14740   0.04088  -0.94324
  0-1A  -> 27-1A    5.522185   44539.4   224.5   -1.67040   0.08083   0.20302   0.05073
  0-1A  -> 28-1A    5.585599   45050.9   222.0   15.49877  -0.13269   0.25626   0.27460
  0-1A  -> 29-1A    5.619365   45323.2   220.6  -12.28243  -0.16136   0.15711   0.87670
  0-1A  -> 30-1A    5.660172   45652.4   219.0    1.96288   0.04755   0.06989   0.92902

------------------------------------------------------------------------------------------
                     CD SPECTRUM VIA TRANSITION VELOCITY DIPOLE MOMENTS    
------------------------------------------------------------------------------------------
     Transition      Energy     Energy  Wavelength    R        MX        MY        MZ   
                      (eV)      (cm-1)    (nm)   (1e40*cgs)   (au)      (au)      (au)  
------------------------------------------------------------------------------------------
  0-1A  ->  1-1A    1.557648   12563.3   796.0   10.06892   0.19405   0.13419   1.01026
  0-1A  ->  2-1A    2.217194   17882.9   559.2    4.02702  -0.14387  -0.15791  -0.12699
  0-1A  ->  3-1A    3.407032   27479.6   363.9   11.95086   0.32142   0.07784  -0.58860
  0-1A  ->  4-1A    3.541788   28566.4   350.1    0.82966  -0.11513  -0.17738  -0.19600
  0-1A  ->  5-1A    3.768033   30391.2   329.0   51.85077  -0.11558  -0.20911  -1.16482
  0-1A  ->  6-1A    3.798832   30639.7   326.4    0.35334   0.14636   0.07005  -0.35874
  0-1A  ->  7-1A    3.848719   31042.0   322.1  -20.90438  -0.12140   0.32902   0.11324
  0-1A  ->  8-1A    3.950317   31861.5   313.9   33.33643   0.41358   0.10890   0.18123
  0-1A  ->  9-1A    3.976767   32074.8   311.8  -41.22886   0.34237   0.23357   2.17582
  0-1A  -> 10-1A    4.220365   34039.5   293.8   -6.82568  -0.08715  -0.29665  -0.99678
  0-1A  -> 11-1A    4.304440   34717.7   288.0   -3.03849  -0.30939  -0.22015  -0.26281
  0-1A  -> 12-1A    4.404482   35524.5   281.5  -12.23488  -0.12322  -0.01167   0.14628
  0-1A  -> 13-1A    4.454230   35925.8   278.4   16.96723  -0.17439   0.16210   0.50430
  0-1A  -> 14-1A    4.529174   36530.3   273.7    0.30018   0.02975   0.01801   0.07203
  0-1A  -> 15-1A    4.583133   36965.5   270.5    3.96397   0.07447  -0.14578  -0.19489
  0-1A  -> 16-1A    4.910533   39606.1   252.5   -0.10395  -0.00111   0.00579   0.03981
  0-1A  -> 17-1A    4.936440   39815.1   251.2  -20.04307  -0.14191   0.03876   0.64825
  0-1A  -> 18-1A    4.969733   40083.6   249.5    7.02167  -0.06448  -0.27989  -0.52932
  0-1A  -> 19-1A    5.032867   40592.8   246.3    0.50277  -0.00503   0.06986   0.19486
  0-1A  -> 20-1A    5.078092   40957.6   244.2   34.14195  -0.11052   0.24981  -0.22264
  0-1A  -> 21-1A    5.156789   41592.3   240.4   -7.65451  -0.01643  -0.07043   0.01993
  0-1A  -> 22-1A    5.227746   42164.6   237.2   -1.82312   0.06231  -0.04576  -0.06919
  0-1A  -> 23-1A    5.244612   42300.7   236.4    1.86553   0.11958   0.18460  -0.04571
  0-1A  -> 24-1A    5.325032   42949.3   232.8   -1.32709  -0.04183   0.01723   0.12041
  0-1A  -> 25-1A    5.427919   43779.1   228.4  -11.16837  -0.25892  -0.06787   0.09072
  0-1A  -> 26-1A    5.473333   44145.4   226.5   62.66263   0.14740   0.04088  -0.94324
  0-1A  -> 27-1A    5.522185   44539.4   224.5   -1.45291   0.08083   0.20302   0.05073
  0-1A  -> 28-1A    5.585599   45050.9   222.0   14.94832  -0.13269   0.25626   0.27460
  0-1A  -> 29-1A    5.619365   45323.2   220.6  -11.34833  -0.16136   0.15711   0.87670
  0-1A  -> 30-1A    5.660172   45652.4   219.0    0.69677   0.04755   0.06989   0.92902

Total run time:    45785.717 sec

           *** ORCA-CIS/TD-DFT FINISHED WITHOUT ERROR ***
-----------------------
CIS/TD-DFT TOTAL ENERGY
-----------------------

    E(SCF)  =  -3010.643827606 Eh
    DE(CIS) =      0.057242504 Eh (Root  1)
    ----------------------------- ---------
    E(tot)  =  -3010.586585102 Eh


Maximum memory used throughout the entire CIS-calculation: 1823.5 MB
=> NOW LEAVING ORCA_CIS

-------------------------   --------------------
FINAL SINGLE POINT ENERGY     -3010.586585102118
-------------------------   --------------------



           ************************************************************
           *        Program running with 4 parallel MPI-processes     *
           *              working on a common directory               *
           ************************************************************

------------------------------------------------------------------------------
                              ORCA PROPERTY CALCULATIONS
------------------------------------------------------------------------------

GBWName                                 ... tddft.gbw
Number of atoms                         ...    140
Number of basis functions               ...   2491
Max core memory                         ...   2200 MB

Electric properties:
Dipole moment                           ... YES
Quadrupole moment                       ...  NO
Static polarizability (Dipole/Dipole)   ...  NO
Static polarizability (Dipole/Quad.)    ...  NO
Static polarizability (Quad./Quad.)     ...  NO
Static polarizability (Velocity)        ...  NO
Static hyperpolarizability              ...  NO

Atomic electric properties:
Dipole moment                           ...  NO
Quadrupole moment                       ...  NO
Static polarizability                   ...  NO

Choice of electric origin               ... Center of mass
Position of electric origin             ...    74.634185    99.188498    41.948136

General magnetic properties:
Magnetizability                         ...  NO

EPR properties:
g-Tensor (aka g-matrix)                 ...  NO
Zero-Field splitting spin-orbit         ...  NO
Zero-field splitting spin-spin          ...  NO
Hyperfine couplings                     ...  NO (   0 nuclei)
Quadrupole couplings                    ...  NO (   0 nuclei)
Contact density                         ...  NO (   0 nuclei)

NMR properties:
Chemical shifts                         ...  NO (   0 nuclei)
Spin-rotation constants                 ...  NO (   0 nuclei)
Spin-spin couplings                     ...  NO (   0 nuclei,    0 pairs)

Choice of magnetic origin               ... GIAO
Position of magnetic origin             ...     0.000000     0.000000     0.000000

Properties with geometric perturbations:
SCF Hessian                             ...  NO
IR spectrum                             ...  NO
VCD spectrum                            ...  NO
X-ray spectroscopy properties:
SCF XES/XAS/RIXS spectra                ...  NO

SCF SOC stabilization energy            ...  NO
Diagonal Born-Oppenheimer correction    ...  NO

-------------
DIPOLE MOMENT
-------------

Method             : SCF
Type of density    : Electron Density
Multiplicity       :   1
Irrep              :   0
Energy             : -3010.6438276059975578 Eh
Basis              : AO
                                X                 Y                 Z
Electronic contribution:     58.526490018    -190.730513928      33.675373500
Nuclear contribution   :    -55.918878543     192.827421473     -34.236029130
                        -----------------------------------------
Total Dipole Moment    :      2.607611474       2.096907545      -0.560655630
                        -----------------------------------------
Magnitude (a.u.)       :      3.392785521
Magnitude (Debye)      :      8.623775451



--------------------
Rotational spectrum 
--------------------
 
Rotational constants in cm-1:             0.001477             0.000339             0.000316 
Rotational constants in MHz :            44.283578            10.162134             9.458462 

Dipole components along the rotational axes: 
x,y,z [a.u.] :    -0.778629     3.180025     0.890039 
x,y,z [Debye]:    -1.979119     8.082982     2.262300 

 

Dipole moment calculation done in   0.2 sec 

Maximum memory used throughout the entire PROP-calculation: 430.9 MB

--------------------------------
SUGGESTED CITATIONS FOR THIS RUN
--------------------------------

Below you find a list of papers that are relevant to this ORCA run
We neither can nor want to force you to cite these papers, but we appreciate if you do
You receive ORCA, which is the product of decades of hard work by many enthusiastic individuals, for free
The only thing we kindly ask in return is that you cite our papers,
We deeply appreciate it, if you show your appreciation for ORCA by not just citing the generic ORCA reference.

Please note that relegating all ORCA citations to the supporting information does *not* help us.
SI sections are not indexed - citations you put there will not count into any citation statistics
But we need these citations in order to attract the funding resources that allow us to do what we are doing

Therefore, if you are a happy ORCA user, please consider citing a few of the papers listed below in the main body of your paper

In addition to the list printed below, the program has created the file tddft.bibtex that contains the list in bibtex format
You can import this file easily into all common literature databanks and citation aid programs

It goes without saying that in many instances, there are alternative algorithms to achieve similar
results as the ones you have gotten from ORCA. It is, of course, also the case that in some instances
ORCA just re-implements algorithms worked out by others. We are fully aware of that and we are also
fully appreciative of our colleagues work. Hence this citation list should not be read as indicating
that the listed papers, which are focused on our own work, are the only ones worth citing. It simply
meant to make it easier for users to cite ORCA specific papers. It is not a substitute for doing your
own literature research and citing the relevant literature in a scientifically appropriate manner.

List of essential papers. We consider these as the minimum necessary citations

  1. Neese, F.
     Software update: the ORCA program system, version 6.0
     WIRES Comput. Molec. Sci. 2025 15(1), e70019
     doi.org/10.1002/wcms.70019

List of papers to cite with high priority. The work reported in these papers was absolutely
necessary for this run to complete.
Our perspective: the developers of density functionals and basis sets usually get cited in chemistry papers
Good! But without the algorithms to do something with them, the functionals or basis sets would not do anything.
Hence, in our opinion, the algorithm design and method developments papers are equally worthy of getting cited

  1. Neese, F.; Olbrich, G.
     Efficient use of the resolution of the identity approximation in time-dependent density functional calculations with hybrid density functionals
     Chem. Phys. Lett. 2002 362 , 170-178
     doi.org/10.1016/s0009-2614(02)01053-9
  2. Neese, F.
     An improvement of the resolution of the identity approximation for the formation of the Coulomb matrix
     J. Comp. Chem. 2003 24(14), 1740-1747
     doi.org/10.1002/jcc.10318
  3. Neese, F.; Wennmohs, F.; Hansen, A.; Becker, U.
     Efficient, approximate and parallel Hartree-Fock and hybrid DFT calculations. A 'chain-of-spheres' algorithm for the Hartree-Fock exchange
     Chem. Phys. 2009 356(1-3), 98-109
     doi.org/10.1016/j.chemphys.2008.10.036
  4. Garcia-Rates, M.; Neese, F.
     Effect of the Solute Cavity on the Solvation Energy and its Derivatives within the Framework of the Gaussian Charge Scheme
     J. Comput. Chem. 2020 41 , 922-939
     doi.org/10.1002/jcc.26139
  5. Helmich-Paris, B.; de Souza, B.; Neese, F.; Izsák, R.
     An improved chain of spheres for exchange algorithm
     J. Chem. Phys. 2021 155(10), 104109
     doi.org/10.1063/5.0058766
  6. Neese, F.
     The SHARK Integral Generation and Digestion System
     J. Comp. Chem. 2022 44(3), 381
     doi.org/10.1002/jcc.26942

List of suggested additional citations. These are papers that are important in the 'surrounding' of 
of this run, or papers that preceded the highly important papers. If you like your results we are grateful for a citation.

  1. Izsak, R.; Neese, F.
     An overlap fitted chain of spheres exchange method
     J. Chem. Phys. 2011 135 , 144105
     doi.org/10.1063/1.3646921
  2. Izsak, R.; Hansen, A.; Neese, F.
     The resolution of identity and chain of spheres approximations for the LPNO-CCSD singles Fock term
     Molec. Phys. 2012 110 , 2413-2417
     doi.org/10.1080/00268976.2012.687466
  3. Neese, F.
     The ORCA program system
     WIRES Comput. Molec. Sci. 2012 2(1), 73-78
     doi.org/10.1002/wcms.81
  4. Izsak, R.; Neese, F.; Klopper, W.
     Robust fitting techniques in the chain of spheres approximation to the Fock exchange: The role of the complementary space
     J. Chem. Phys. 2013 139 , 
     doi.org/10.1063/1.4819264
  5. Neese, F.
     Software update: the ORCA program system, version 4.0
     WIRES Comput. Molec. Sci. 2018 8(1), 1-6
     doi.org/10.1002/wcms.1327
  6. Neese, F.; Wennmohs, F.; Becker, U.; Riplinger, C.
     The ORCA quantum chemistry program package
     J. Chem. Phys. 2020 152(22), 224108
     doi.org/10.1063/5.0004608
  7. Neese, F.
     Software update: The ORCA program system—Version 5.0
     WIRES Comput. Molec. Sci. 2022 12(1), e1606
     doi.org/10.1002/wcms.1606

List of optional additional citations

  1. Neese, F.
     Approximate second-order SCF convergence for spin unrestricted wavefunctions
     Chem. Phys. Lett. 2000 325(1-3), 93-98
     doi.org/10.1016/s0009-2614(00)00662-x

Timings for individual modules:

Sum of individual times          ...    55738.592 sec (= 928.977 min)
Startup calculation              ...       83.714 sec (=   1.395 min)   0.2 %
SCF iterations                   ...     9862.345 sec (= 164.372 min)  17.7 %
Property integrals               ...        4.541 sec (=   0.076 min)   0.0 %
Property calculations            ...        1.655 sec (=   0.028 min)   0.0 %
CIS module                       ...    45786.338 sec (= 763.106 min)  82.1 %
                             ****ORCA TERMINATED NORMALLY****
TOTAL RUN TIME: 0 days 15 hours 28 minutes 59 seconds 149 msec
