
                                 *****************
                                 * O   R   C   A *
                                 *****************

                                            #,                                       
                                            ###                                      
                                            ####                                     
                                            #####                                    
                                            ######                                   
                                           ########,                                 
                                     ,,################,,,,,                         
                               ,,#################################,,                 
                          ,,##########################################,,             
                       ,#########################################, ''#####,          
                    ,#############################################,,   '####,        
                  ,##################################################,,,,####,       
                ,###########''''           ''''###############################       
              ,#####''   ,,,,##########,,,,          '''####'''          '####       
            ,##' ,,,,###########################,,,                        '##       
           ' ,,###''''                  '''############,,,                           
         ,,##''                                '''############,,,,        ,,,,,,###''
      ,#''                                            '''#######################'''  
     '                                                          ''''####''''         
             ,#######,   #######,   ,#######,      ##                                
            ,#'     '#,  ##    ##  ,#'     '#,    #''#        ,####,    ,#,          
            ##       ##  ##   ,#'  ##            #'  '#       #'       ,# #          
            ##       ##  #######   ##           ,######,      #####,      #          
            '#,     ,#'  ##    ##  '#,     ,#' ,#      #,     #,   #      #          
             '#######'   ##     ##  '#######'  #'      '#     '####' #    #          



                #########################################################
                #                        -***-                          #
                #          Department of theory and spectroscopy        #
                #                                                       #
                #                      Frank Neese                      #
                #                                                       #
                #     Directorship, Architecture, Infrastructure        #
                #                    SHARK, DRIVERS                     #
                #        Core code/Algorithms in most modules           #
                #                                                       #
                #        Max Planck Institute fuer Kohlenforschung      #
                #                Kaiser Wilhelm Platz 1                 #
                #                 D-45470 Muelheim/Ruhr                 #
                #                      Germany                          #
                #                                                       #
                #                  All rights reserved                  #
                #                        -***-                          #
                #########################################################


                         Program Version 6.1.1  -  RELEASE   -
                                (GIT: $487d211c$)
                          ($2025-11-21 10:33:24 +0100$)


 With contributions from (in alphabetic order):
[Max-Planck-Institut fuer Kohlenforschung]                               
  Daniel Aravena         : Magnetic Suceptibility                        
  Michael Atanasov       : Ab Initio Ligand Field Theory (pilot matlab implementation)
  Alexander A. Auer      : GIAO ZORA, VPT2 properties, NMR spectrum      
  Ute Becker             : All parallelization in ORCA, NUMFREQ, NUMCALC 
  Giovanni Bistoni       : ED, misc. LED, open-shell LED, HFLD           
  Dmytro Bykov           : pre 5.0 version of the SCF Hessian            
  Marcos Casanova-Páez   : Triplet and SCS-CIS(D). UHF-(DLPNO)-IP/EA/STEOM-CCSD. UHF-CVS-IP/STEOM-CCSD   
  Vijay G. Chilkuri      : MRCI spin determinant printing, contributions to CSF-ICE 
  Pauline Colinet        : FMM embedding                                 
  Dipayan Datta          : RHF DLPNO-CCSD density                        
  Achintya Kumar Dutta   : EOM-CC, STEOM-CC                              
  Nicolas Foglia         : Exact transition moments, OPA infrastructure, MCD improvements    
  Dmitry Ganyushin       : Spin-Orbit,Spin-Spin,Magnetic field MRCI      
  Miquel Garcia-Rates    : C-PCM and meta-GGA Hessian, CCSD/C-PCM, Gaussian charge scheme 
  Tiago L. C. Gouveia    : GS-ROHF, GS-ROCIS                             
  Yang Guo               : DLPNO-NEVPT2, F12-NEVPT2, CIM, IAO-localization        
  Andreas Hansen         : Spin unrestricted coupled pair/coupled cluster methods 
  Ingolf Harden          : AUTO-CI MPn and infrastructure                
  Benjamin Helmich-Paris : MC-RPA, TRAH-(SCF,CASSCF), AVAS, COSX integrals, SCF dyn. polar., MC-PDFT, srDFT 
  Lee Huntington         : MR-EOM, pCC                                   
  Robert Izsak           : Overlap fitted RIJCOSX, COSX-SCS-MP3, EOM     
  Riya Kayal             : Wick's Theorem for AUTO-CI, AUTO-CI UHF-CCSDT 
  Emily Kempfer          : AUTO-CI RHF CISDT and CCSDT, approximate NEVPT4
  Christian Kollmar      : KDIIS, OOCD, Brueckner-CCSD(T), CCSD density, CASPT2, CASPT2-K, improved NEVPT2 
  Axel Koslowski         : Symmetry handling                             
  Simone Kossmann        : meta-GGA functionals, TD-DFT gradient, OOMP2, (MP2 Hessian; deprecated post 5.0) 
  Lucas Lang             : DCDCAS, Hyperfine gauge corrections, ICE-SOC+SSC
  Marvin Lechner         : AUTO-CI (C++ implementation), FIC-MRCC        
  Spencer Leger          : CASSCF response                               
  Dagmar Lenk            : GEPOL surface, SMD, ORCA-2-JSON               
  Dimitrios Liakos       : Extrapolation schemes; Compound Job, Property file
  Dimitrios Manganas     : Further ROCIS development; embedding schemes. LFT, Crystal Embedding 
  Dimitrios Pantazis     : SARC Basis sets                               
  Anastasios Papadopoulos: AUTO-CI, single reference methods and gradients 
  Taras Petrenko         : pre 6.0 DFT Hessian and TD-DFT gradient,  ECA, NRVS 
  Petra Pikulova         : Analytic Raman intensities                    
  Peter Pinski           : DLPNO-MP2, DLPNO-MP2 Gradient                 
  Shashank Vittal Rao    : ES-AILFT, MagRelax                            
  Christoph Reimann      : Effective Core Potentials                     
  Marius Retegan         : Local ZFS, SOC                                
  Christoph Riplinger    : Optimizer, TS searches, QM/MM, DLPNO-CCSD(T), (RO)-DLPNO pert. Triples 
  Michael Roemelt        : Original ROCIS implementation, recursive CI coupling coefficients
  Masaaki Saitow         : Open-shell DLPNO-CCSD energy and density      
  Barbara Sandhoefer     : DKH picture change effects                    
  Yorick L. A. Schmerwitz: GMF and freeze-and-release deltaSCF, NEB S-IDPP initial path                    
  Kantharuban Sivalingam : CASSCF convergence/infrastructure, NEVPT2, NEVPT3, NEVPT4(SD), FIC-MRCI and CEPA variants
  Bernardo de Souza      : ESD, SOC TD-DFT                               
  Georgi L. Stoychev     : AutoAux, RI-MP2 NMR, DLPNO-MP2 response, X2C  
  Van Anh Tran           : RI-MP2 g-tensors                              
  Willem Van den Heuvel  : Paramagnetic NMR                              
  Zikuan Wang            : NOTCH, Electric field optimization            
  Frank Wennmohs         : Technical directorship and infrastructure     
  Hang Xu                : AUTO-CI-Response properties                   
                                                                         
[FACCTs GmbH]                                                            
  Markus Bursch, Nicolas Foglia, Miquel Garcia-Rates, Ingolf Harden, Hagen Neugebauer, Anastasios Papadopoulos, 
  Christoph Riplinger, Bernardo de Souza, Georgi L. Stoychev                                                    
                                                                 
  APM, various basis sets, CI-OPT, improved COSX, DLPNO-Multilevel,           
  DOCKER, DRACO, updates on ESD, Fragmentator, GOAT, IRC, LR-CPCM, L-BFGS, MBIS, meta-GGA TD-DFT gradient, ML-optimized integration grids, 
  MM, NACMEs, nearIR, NEB, NEB-TS, NL-DFT gradient (VV10), 2- and 3-layer-ONIOM, interface openCOSMO-RS, QMMM,   
  Crystal-QMMM, RESP, rigid body optimization, SF, symmetry and pop. for TD-DFT, various functionals, SOLVATOR                                   
                                                                         
[Other institutions]                                                     
  V. Asgeirsson          : NEB                                           
  Christoph Bannwarth    : sTDA-DFT, sTD-DFT, PBEh-3c, B97-3c, D3        
  Giovanni Bistoni       : ETS/NOCV, ADLD/ADEX, COVALED                  
  Martin Brehm           : Molecular dynamics                            
  Ronald Cardenas        : ETS/NOCV                                      
  Martina Colucci        : COVALED                                       
  Sebastian Ehlert       : rSCAN, r2SCAN, r2SCAN-3c, D4, dhf basis sets  
  Marvin Friede          : D4 for Fr, Ra, Ac-Lr                          
  Lars Goerigk           : TD-DFT with DH, B97 family of functionals     
  Stefan Grimme          : VdW corrections, initial TS optimization, DFT functionals, gCP, sTDA/sTD-DF 
  Waldemar Hujo          : DFT-NL                                        
  H. Jonsson             : NEB                                           
  Holger Kruse           : gCP                                           
  Marcel Mueller         : wB97X-3c, vDZP basis set                      
  Hagen Neugebauer       : wr2SCAN, Native XTB                           
  Gianluca Regni         : ADLD/ADEX                                     
  Tobias Risthaus        : pre 6.0 range-separated hybrid DFT and stability analysis
  Lukas Wittmann         : regularized MP2, r2SCAN double-hybrids, wr2SCAN        
                                                                         
We gratefully acknowledge several colleagues who have allowed us to      
interface, adapt or use parts of their codes:                            
  Ed Valeev, F. Pavosevic, A. Kumar             : LibInt (2-el integral package), F12 methods 
  Garnet Chan, S. Sharma, J. Yang, R. Olivares  : DMRG                   
  Ulf Ekstrom                                   : XCFun DFT Library      
  Mihaly Kallay                                 : mrcc  (arbitrary order and MRCC methods)
  Frank Weinhold                                : gennbo (NPA and NBO analysis)           
  Simon Mueller                                 : openCOSMO-RS                            
  Christopher J. Cramer and Donald G. Truhlar   : smd solvation model                     
  S Lehtola, MJT Oliveira, MAL Marques          : LibXC Library                           
  Liviu Ungur et al                             : ANISO software                          


 Your calculation uses the libint2 library for the computation of 2-el integrals
 For citations please refer to: http://libint.valeyev.net

 Your ORCA version has been built with support for libXC version: 7.0.0
 For citations please refer to: https://libxc.gitlab.io

 This ORCA versions uses:
   CBLAS   interface :  Fast vector & matrix operations
   LAPACKE interface :  Fast linear algebra routines
   SCALAPACK package :  Parallel linear algebra routines
   Shared memory     :  Shared parallel matrices
   BLAS/LAPACK       :  OpenBLAS 0.3.29  USE64BITINT DYNAMIC_ARCH NO_AFFINITY Haswell SINGLE_THREADED
        Core in use  :  Haswell
   Copyright (c) 2011-2014, The OpenBLAS Project


  ***********************************
  * Starting time: Fri Aug 14 00:30:49 2026
  * Host name:     steezy
  * Process ID:    445304
  * Working dir.:  /home/jannes/chlorophyll-ladder/012-bacteriochlorophyll-growth/bacteriochlorophyll_a/02_tddft_ch2cl2/wb97xd
  ***********************************

NOTE: MaxCore=2200 MB was set to SCF,MP2,MDCI,CIPSI,MRCI,RASCI and CIS
      => If you want to overwrite this, your respective input block should be placed after the MaxCore statement


***************************************
The coordinates will be read from file: /home/jannes/chlorophyll-ladder/012-bacteriochlorophyll-growth/bacteriochlorophyll_a/01_opt_extended/bacteriochlorophyll_a_opt_extended_b3lypd4_tzvp.xyz
***************************************


Your calculation utilizes the atom-pairwise dispersion correction
with the zero-damping scheme (D30)


XCFun DFT library Copyright 2009-2010 Ulf Ekstrom and contributors.
See http://admol.org/xcfun for more information.
This is free software; see the source code for copying conditions.
There is ABSOLUTELY NO WARRANTY; not even for MERCHANTABILITY or FITNESS FOR A PARTICULAR PURPOSE.
For details see the documentation.
Scientific users of this library should cite U. Ekstrom, L. Visscher, R. Bast, A. J. Thorvaldsen and K. Ruud;
J.Chem.Theor.Comp. 2010, DOI: 10.1021/ct100117s
XCFun Version 0.99 

================================================================================

----- Orbital basis set information -----
Your calculation utilizes the basis: def2-TZVP
   F. Weigend and R. Ahlrichs, Phys. Chem. Chem. Phys. 7, 3297 (2005).

----- AuxJ basis set information -----
Your calculation utilizes the auxiliary basis: def2/J
   H-Rn: F. Weigend, Phys. Chem. Chem. Phys. 8, 1057 (2006).
   Fr-Lr: K. Eichkorn, F. Weigend, O. Treutler, R. Ahlrichs; Theor. Chem. Acc. 97, 119 (1997).

================================================================================
                                        WARNINGS
                       Please study these warnings very carefully!
================================================================================


WARNING: CIS/ROCIS methods need fully converged wavefunctions
  ===> : Setting SCFConvForced true
         You can overwrite this default with %scf ConvForced false 


================================================================================
                                       INPUT FILE
================================================================================
NAME = tddft.inp
|  1> %pal nprocs 4 end
|  2> %maxcore 2200
|  3> ! wB97X-D3 def2-TZVP def2/J RIJCOSX DefGrid3 TightSCF CPCM(CH2Cl2)
|  4> %tddft
|  5>   nroots 30
|  6>   tda false
|  7>   triplets false
|  8> end
|  9> * xyzfile 0 1 /home/jannes/chlorophyll-ladder/012-bacteriochlorophyll-growth/bacteriochlorophyll_a/01_opt_extended/bacteriochlorophyll_a_opt_extended_b3lypd4_tzvp.xyz
| 10> 
| 11>                          ****END OF INPUT****
================================================================================

                       ****************************
                       * Single Point Calculation *
                       ****************************

---------------------------------
CARTESIAN COORDINATES (ANGSTROEM)
---------------------------------
  Mg    41.654185   48.095014   22.382115
  C     38.395878   49.196119   22.227099
  C     42.679750   51.094416   21.176176
  C     44.841747   46.994541   22.608586
  C     40.525839   45.037233   23.583157
  N     40.650258   49.892075   21.790744
  C     39.309104   50.142195   21.824346
  C     39.001906   51.564507   21.414549
  C     40.340599   52.019553   20.796999
  C     41.309410   50.960472   21.289101
  C     40.295738   52.058053   19.265587
  C     38.534396   52.425597   22.600020
  C     39.486890   52.411392   23.791929
  C     38.931187   53.164502   24.977543
  O     37.757554   53.317191   25.210025
  O     39.916070   53.626758   25.765678
  N     43.456810   48.915214   21.992166
  C     43.684450   50.174742   21.505615
  C     45.096001   50.394661   21.358140
  C     45.721030   49.225922   21.772403
  C     44.668108   48.311345   22.167343
  C     45.697065   51.675403   20.876139
  C     47.161302   48.913623   21.819028
  O     47.595775   47.968588   22.458439
  C     48.134761   49.772692   21.036427
  N     42.541072   46.287612   22.997262
  C     43.875068   46.075791   22.972778
  C     44.213197   44.649768   23.360208
  C     42.880981   44.138485   23.943671
  C     41.892837   45.188841   23.472234
  C     44.681337   43.842016   22.145192
  C     42.883504   44.001105   25.478117
  C     43.152758   45.300525   26.234088
  N     39.885934   47.252563   22.804899
  C     39.549512   45.992179   23.266984
  C     38.118868   45.862645   23.380809
  C     37.618684   47.093849   22.975879
  C     38.726396   47.903031   22.638816
  C     37.364975   44.658723   23.830781
  C     36.401366   47.862170   22.773672
  O     35.242299   47.553691   22.911362
  C     36.884425   49.307576   22.304796
  C     36.215127   49.657560   20.996699
  O     36.663447   49.420929   19.902260
  O     35.029915   50.246642   21.210054
  C     34.241472   50.512071   20.040305
  C     39.494986   54.365743   26.952752
  C     38.950473   55.720426   26.627044
  C     39.676448   56.773630   26.243057
  C     41.171125   56.745343   26.092285
  C     38.999943   58.070852   25.883897
  C     39.010384   58.366607   24.376827
  C     38.270318   59.657093   24.030772
  C     38.124269   59.937774   22.528569
  C     39.482424   60.155203   21.856128
  C     37.178718   61.125838   22.302730
  C     36.762928   61.357191   20.850720
  C     35.744127   62.486379   20.702573
  C     35.207561   62.698600   19.279927
  C     36.308339   63.159752   18.321398
  C     34.023486   63.675351   19.301616
  C     33.263132   63.806379   17.982699
  C     32.027950   64.698003   18.101348
  C     31.164051   64.788870   16.836678
  C     31.910499   65.431018   15.665164
  C     29.868590   65.549157   17.127636
  H     43.012741   52.035993   20.762293
  H     45.867296   46.666859   22.678540
  H     40.175979   44.088007   23.968920
  H     38.212146   51.575882   20.661466
  H     40.630395   53.007479   21.164563
  H     41.271395   52.311340   18.847350
  H     39.995880   51.087560   18.864959
  H     39.573857   52.803152   18.923823
  H     38.402930   53.453395   22.248826
  H     37.550965   52.094894   22.934280
  H     39.654623   51.382225   24.127167
  H     40.468636   52.816685   23.545746
  H     46.498005   52.018533   21.531401
  H     46.121775   51.574317   19.874221
  H     44.954090   52.468979   20.835177
  H     49.091411   49.255906   21.003376
  H     47.783030   49.971608   20.023686
  H     48.277118   50.736295   21.530178
  H     45.006441   44.639331   24.111259
  H     42.626057   43.163125   23.521430
  H     44.890328   42.808566   22.431012
  H     43.913079   43.831660   21.368404
  H     45.589628   44.267151   21.715625
  H     41.917453   43.594531   25.791577
  H     43.635095   43.252218   25.748207
  H     43.137650   45.126904   27.311377
  H     44.127581   45.723247   25.983570
  H     42.394483   46.052847   26.008752
  H     36.300977   44.879238   23.899811
  H     37.492205   43.825890   23.132883
  H     37.708172   44.312578   24.809553
  H     36.540343   50.008910   23.067602
  H     33.323507   50.964839   20.404453
  H     34.767449   51.192836   19.371076
  H     34.027697   49.584411   19.510530
  H     38.752282   53.768642   27.479334
  H     40.402586   54.414373   27.550907
  H     37.872598   55.820537   26.676194
  H     41.623521   57.597522   26.607969
  H     41.619367   55.830591   26.475097
  H     41.455769   56.828644   25.039617
  H     37.964652   58.046846   26.232843
  H     39.493557   58.897600   26.409021
  H     40.042258   58.419719   24.022295
  H     38.542784   57.526455   23.852167
  H     37.269297   59.612776   24.473482
  H     38.775092   60.506815   24.507189
  H     37.657105   59.053728   22.073789
  H     39.380540   60.318337   20.782646
  H     39.983415   61.031060   22.280352
  H     40.141939   59.296864   21.990500
  H     36.275597   60.968995   22.902750
  H     37.648749   62.035818   22.696410
  H     37.644715   61.572527   20.243754
  H     36.332382   60.431367   20.449867
  H     34.896877   62.280187   21.365915
  H     36.186327   63.424616   21.060503
  H     34.829286   61.730985   18.922794
  H     35.935409   63.276077   17.303136
  H     36.713444   64.125181   18.640728
  H     37.134717   62.448953   18.282587
  H     33.321026   63.350476   20.077159
  H     34.381664   64.664174   19.614624
  H     33.926804   64.200016   17.209898
  H     32.955692   62.808976   17.645047
  H     31.404430   64.325162   18.921792
  H     32.336467   65.710075   18.392677
  H     30.895202   63.765309   16.545400
  H     31.268706   65.499592   14.783810
  H     32.230469   66.445712   15.921902
  H     32.798113   64.863348   15.382156
  H     29.223693   65.588677   16.246705
  H     29.304586   65.078558   17.936329
  H     30.082986   66.579302   17.427734

----------------------------
CARTESIAN COORDINATES (A.U.)
----------------------------
  NO LB      ZA    FRAG     MASS         X           Y           Z
   0 Mg   12.0000    0    24.305   78.715002   90.886405   42.296067
   1 C     6.0000    0    12.011   72.557694   92.967192   42.003129
   2 C     6.0000    0    12.011   80.653039   96.554453   40.017172
   3 C     6.0000    0    12.011   84.738622   88.806812   42.724035
   4 C     6.0000    0    12.011   76.582737   85.108036   44.565707
   5 N     7.0000    0    14.007   76.817854   94.282359   41.178538
   6 C     6.0000    0    12.011   74.283441   94.755017   41.242038
   7 C     6.0000    0    12.011   73.702921   97.442797   40.467633
   8 C     6.0000    0    12.011   76.232684   98.302708   39.300633
   9 C     6.0000    0    12.011   78.063471   96.301336   40.230571
  10 C     6.0000    0    12.011   76.147909   98.375463   36.406684
  11 C     6.0000    0    12.011   72.819456   99.070021   42.707848
  12 C     6.0000    0    12.011   74.619409   99.043177   44.960229
  13 C     6.0000    0    12.011   73.569282  100.466349   47.200716
  14 O     8.0000    0    15.999   71.351436  100.754889   47.640043
  15 O     8.0000    0    15.999   75.430440  101.339886   48.690076
  16 N     7.0000    0    14.007   82.121470   92.436357   41.559170
  17 C     6.0000    0    12.011   82.551647   94.816521   40.639723
  18 C     6.0000    0    12.011   85.219092   95.232108   40.361035
  19 C     6.0000    0    12.011   86.400225   93.023512   41.143878
  20 C     6.0000    0    12.011   84.410492   91.295211   41.890208
  21 C     6.0000    0    12.011   86.354937   97.652360   39.450185
  22 C     6.0000    0    12.011   89.121945   92.433351   41.231987
  23 O     8.0000    0    15.999   89.942979   90.647494   42.440300
  24 C     6.0000    0    12.011   90.961517   94.056757   39.753087
  25 N     7.0000    0    14.007   80.390975   87.470911   43.458526
  26 C     6.0000    0    12.011   82.911862   87.070627   43.412259
  27 C     6.0000    0    12.011   83.550833   84.375833   44.144395
  28 C     6.0000    0    12.011   81.033310   83.409650   45.246982
  29 C     6.0000    0    12.011   79.165989   85.394534   44.356094
  30 C     6.0000    0    12.011   84.435490   82.849403   41.848349
  31 C     6.0000    0    12.011   81.038077   83.150037   48.146664
  32 C     6.0000    0    12.011   81.546895   85.605585   49.575242
  33 N     7.0000    0    14.007   75.373492   89.294404   43.095013
  34 C     6.0000    0    12.011   74.737746   86.912622   43.968227
  35 C     6.0000    0    12.011   72.034220   86.667839   44.183325
  36 C     6.0000    0    12.011   71.089010   88.994477   43.418119
  37 C     6.0000    0    12.011   73.182283   90.523609   42.781162
  38 C     6.0000    0    12.011   70.609569   84.392756   45.033649
  39 C     6.0000    0    12.011   68.788612   90.446394   43.036003
  40 O     8.0000    0    15.999   66.598293   89.863453   43.296200
  41 C     6.0000    0    12.011   69.701462   93.177815   42.149955
  42 C     6.0000    0    12.011   68.436671   93.839189   39.678010
  43 O     8.0000    0    15.999   69.283873   93.392021   37.609821
  44 O     8.0000    0    15.999   66.196946   94.952393   40.081193
  45 C     6.0000    0    12.011   64.707004   95.453980   37.870688
  46 C     6.0000    0    12.011   74.634707  102.736365   50.933320
  47 C     6.0000    0    12.011   73.605726  105.296344   50.317821
  48 C     6.0000    0    12.011   74.977620  107.286612   49.592191
  49 C     6.0000    0    12.011   77.802151  107.233158   49.307274
  50 C     6.0000    0    12.011   73.699211  109.738006   48.913477
  51 C     6.0000    0    12.011   73.718942  110.296902   46.065528
  52 C     6.0000    0    12.011   72.320420  112.735569   45.411577
  53 C     6.0000    0    12.011   72.044427  113.265978   42.572826
  54 C     6.0000    0    12.011   74.610969  113.676859   41.302096
  55 C     6.0000    0    12.011   70.257595  115.511093   42.146052
  56 C     6.0000    0    12.011   69.471865  115.948288   39.402151
  57 C     6.0000    0    12.011   67.546610  118.082143   39.122193
  58 C     6.0000    0    12.011   66.532647  118.483183   36.433782
  59 C     6.0000    0    12.011   68.612817  119.354634   34.622425
  60 C     6.0000    0    12.011   64.295071  120.328975   36.474768
  61 C     6.0000    0    12.011   62.858210  120.576582   33.982377
  62 C     6.0000    0    12.011   60.524054  122.261508   34.206589
  63 C     6.0000    0    12.011   58.891521  122.433221   31.816711
  64 C     6.0000    0    12.011   60.302103  123.646705   29.602870
  65 C     6.0000    0    12.011   56.443455  123.869954   32.366541
  66 H     1.0000    0     1.008   81.282300   98.333776   39.235048
  67 H     1.0000    0     1.008   86.676627   88.187582   42.856230
  68 H     1.0000    0     1.008   75.921597   83.314258   45.294694
  69 H     1.0000    0     1.008   72.210490   97.464292   39.044513
  70 H     1.0000    0     1.008   76.780319  100.169618   39.995228
  71 H     1.0000    0     1.008   77.991634   98.854106   35.616329
  72 H     1.0000    0     1.008   75.581260   96.541497   35.649605
  73 H     1.0000    0     1.008   74.783751   99.783496   35.760843
  74 H     1.0000    0     1.008   72.571020  101.012277   42.044188
  75 H     1.0000    0     1.008   70.961039   98.445083   43.339508
  76 H     1.0000    0     1.008   74.936378   97.098333   45.593739
  77 H     1.0000    0     1.008   76.474639   99.809070   44.495012
  78 H     1.0000    0     1.008   87.868496   98.300781   40.688450
  79 H     1.0000    0     1.008   87.157524   97.461335   37.556835
  80 H     1.0000    0     1.008   84.950920   99.152001   39.372778
  81 H     1.0000    0     1.008   92.769322   93.080173   39.690629
  82 H     1.0000    0     1.008   90.296840   94.432654   37.839283
  83 H     1.0000    0     1.008   91.230531   95.877702   40.686139
  84 H     1.0000    0     1.008   85.049847   84.356111   45.563677
  85 H     1.0000    0     1.008   80.551574   81.566486   44.449060
  86 H     1.0000    0     1.008   84.830427   80.896466   42.388470
  87 H     1.0000    0     1.008   82.983692   82.829834   40.380432
  88 H     1.0000    0     1.008   86.151912   83.652791   41.036583
  89 H     1.0000    0     1.008   79.212507   82.381724   48.739016
  90 H     1.0000    0     1.008   82.458380   81.734846   48.657060
  91 H     1.0000    0     1.008   81.518344   85.277490   51.611023
  92 H     1.0000    0     1.008   83.389043   86.404414   49.101831
  93 H     1.0000    0     1.008   80.113962   87.027269   49.149418
  94 H     1.0000    0     1.008   68.598904   84.809469   45.164097
  95 H     1.0000    0     1.008   70.850000   82.818930   43.714813
  96 H     1.0000    0     1.008   71.258118   83.738637   46.883260
  97 H     1.0000    0     1.008   69.051240   94.503144   43.591450
  98 H     1.0000    0     1.008   62.972302   96.309587   38.558827
  99 H     1.0000    0     1.008   65.700956   96.740441   36.606029
 100 H     1.0000    0     1.008   64.303029   93.700958   36.869559
 101 H     1.0000    0     1.008   73.231201  101.608007   51.928416
 102 H     1.0000    0     1.008   76.349823  102.828263   52.063669
 103 H     1.0000    0     1.008   71.568839  105.485527   50.410701
 104 H     1.0000    0     1.008   78.657056  108.843542   50.281775
 105 H     1.0000    0     1.008   78.649206  105.504528   50.030683
 106 H     1.0000    0     1.008   78.340050  107.390573   47.318018
 107 H     1.0000    0     1.008   71.742796  109.692643   49.572889
 108 H     1.0000    0     1.008   74.632007  111.300335   49.905817
 109 H     1.0000    0     1.008   75.668902  110.397269   45.395558
 110 H     1.0000    0     1.008   72.835306  108.709246   45.074063
 111 H     1.0000    0     1.008   70.428764  112.651820   46.248178
 112 H     1.0000    0     1.008   73.274305  114.341310   46.311876
 113 H     1.0000    0     1.008   71.161616  111.595373   41.713417
 114 H     1.0000    0     1.008   74.418435  113.985139   39.273509
 115 H     1.0000    0     1.008   75.557705  115.331988   42.103763
 116 H     1.0000    0     1.008   75.857271  112.054833   41.556023
 117 H     1.0000    0     1.008   68.550943  115.214703   43.279925
 118 H     1.0000    0     1.008   71.145824  117.230707   42.889999
 119 H     1.0000    0     1.008   71.138202  116.355213   38.255150
 120 H     1.0000    0     1.008   68.658251  114.198734   38.644649
 121 H     1.0000    0     1.008   65.945540  117.692497   40.375727
 122 H     1.0000    0     1.008   68.382248  119.855154   39.798584
 123 H     1.0000    0     1.008   65.817811  116.654655   35.758899
 124 H     1.0000    0     1.008   67.908081  119.574457   32.698188
 125 H     1.0000    0     1.008   69.378355  121.179031   35.225870
 126 H     1.0000    0     1.008   70.174444  118.011418   34.549082
 127 H     1.0000    0     1.008   62.967614  119.715050   37.940333
 128 H     1.0000    0     1.008   64.971930  122.197580   37.066268
 129 H     1.0000    0     1.008   64.112367  121.320447   32.521995
 130 H     1.0000    0     1.008   62.277233  118.691764   33.344307
 131 H     1.0000    0     1.008   59.345772  121.556939   35.757005
 132 H     1.0000    0     1.008   61.107067  124.174045   34.757123
 133 H     1.0000    0     1.008   58.383471  120.498971   31.266275
 134 H     1.0000    0     1.008   59.089290  123.776292   27.937353
 135 H     1.0000    0     1.008   60.906759  125.564199   30.088034
 136 H     1.0000    0     1.008   61.979451  122.573964   29.068062
 137 H     1.0000    0     1.008   55.224776  123.944637   30.701822
 138 H     1.0000    0     1.008   55.377642  122.980652   33.894749
 139 H     1.0000    0     1.008   56.848605  125.816647   32.933644

--------------------------------
INTERNAL COORDINATES (ANGSTROEM)
--------------------------------
 Mg     0   0   0     0.000000000000     0.00000000     0.00000000
 C      1   0   0     3.442822576636     0.00000000     0.00000000
 C      1   2   0     3.391531285625    89.27379526     0.00000000
 C      1   2   3     3.379775498795   178.68423197   127.32406749
 C      1   2   3     3.473570507969    89.40887264   180.53794777
 N      1   2   3     2.141732801460    43.58003832     0.11090155
 C      6   1   2     1.364691414325   127.41948713     1.07056829
 C      7   6   1     1.511712742358   111.43666168   176.00992723
 C      8   7   6     1.542897338756   102.10315393    13.46498825
 C      6   1   2     1.351886955168   122.48131868   182.42025883
 C      9   8   7     1.532552736982   112.45554488   104.11554453
 C      8   7   6     1.537979908075   112.30863114   250.91324535
 C     12   8   7     1.525809123395   114.02584502    53.55888874
 C     13  12   8     1.510517084465   112.26203018   185.25100837
 O     14  13  12     1.206141450090   124.91634702    27.21103301
 O     14  13  12     1.343440084959   111.24274088   205.97397103
 N      1   2   3     2.018476041096   134.95416498     2.25914019
 C     17   1   2     1.369292792013   126.21998472   357.41567272
 C     18  17   1     1.436171650307   109.92181242   180.07534682
 C     19  18  17     1.388605156575   106.43211159   359.96393603
 C     17   1   2     1.364766257928   126.01833725   177.40321797
 C     19  18  17     1.494625119211   124.02723872   181.27915309
 C     20  19  18     1.474478961668   128.85645071   179.71182275
 O     23  20  19     1.220944265732   121.87679999   164.28552897
 C     23  20  19     1.515944062947   119.39966630   343.32681133
 N      1   2   3     2.105154224909   133.35062424   179.73527050
 C     26   1   2     1.350930508859   123.04757831   180.13538757
 C     27  26   1     1.515907608044   111.29225075   184.78404961
 C     28  27  26     1.541634719739   102.47179288   347.04668041
 C     26   1   2     1.361288157653   126.46498462   359.75567540
 C     28  27  26     1.532279387962   111.18551198   107.93223998
 C     29  28  27     1.540585487210   113.89877928   253.64836923
 C     32  29  28     1.527246755281   114.67265954    59.92822059
 N      1   2   3     2.003791824596    46.27529949   181.22260356
 C     34   1   2     1.383933156407   131.90213610   179.70637604
 C     35  34   1     1.440998978098   110.46196832   181.46862980
 C     36  35  34     1.389249564606   104.75952235   359.71581260
 C     34   1   2     1.339857884193   122.23746672     0.94590271
 C     36  35  34     1.490052685810   126.78392204   179.45899266
 C     37  36  35     1.453640074009   144.14207541   180.44565283
 O     40  37  36     1.207292425423   130.77273245   357.90957225
 C      2   1   3     1.517547159741   164.53417584   179.98171429
 C     42   2   1     1.510485445098   114.45640537   236.65105402
 O     43  42   2     1.206143037713   125.14517354    25.93115015
 O     43  42   2     1.340620926581   110.83793086   204.57463086
 C     45  43  42     1.435411877567   115.92326041   185.66164535
 C     16  14  13     1.460326472057   116.07910134   180.41601552
 C     47  16  14     1.495909802625   112.72042119   287.76467119
 C     48  47  16     1.335561344488   125.37145776   286.60779164
 C     49  48  47     1.502528875259   123.69258929   359.50974429
 C     49  48  47     1.506466067918   120.23168817   177.26804634
 C     51  49  48     1.535851292928   113.37278381   252.54242440
 C     52  51  49     1.527353279793   112.44123692   177.67555540
 C     53  52  51     1.535162712251   114.97892410   185.78419736
 C     54  53  52     1.531025231347   111.79895102   295.86302091
 C     54  53  52     1.535110829703   110.12421088   170.89546266
 C     56  54  53     1.527985241248   115.12482927   189.93479190
 C     57  56  54     1.528059843717   112.67145119   175.80152829
 C     58  57  56     1.535207680015   115.15201269   184.36514357
 C     59  58  57     1.530735740720   111.75167665   294.87378157
 C     59  58  57     1.535104571984   110.14820679   169.92583379
 C     61  59  58     1.528021002671   115.22572765   188.99215594
 C     62  61  59     1.527987654961   112.66020692   175.06684628
 C     63  62  61     1.534263987452   115.19651454   184.22607196
 C     64  63  62     1.530354066497   112.40875057   296.34072602
 C     64  63  62     1.530003248709   110.45258640   172.42960905
 H      3   1   2     1.081087118111   178.22904167   254.25841233
 H      4   1  34     1.078896998460   178.66999951   195.24121964
 H      5   1   2     1.082703074296   179.35529804   265.21365120
 H      8   7   6     1.091322363625   110.11642317   130.73935530
 H      9   8   7     1.093198737172   111.22043992   226.33211750
 H     11   9   8     1.091322069902   111.26088326   184.14167391
 H     11   9   8     1.091913112386   110.63067436   304.35879309
 H     11   9   8     1.092285711510   110.43463281    63.94681169
 H     12   8   7     1.094069682986   108.36514711   175.82700546
 H     12   8   7     1.090060544107   109.92221944   291.20274690
 H     13  12   8     1.095310260924   110.08619827   303.74708667
 H     13  12   8     1.090271423672   112.47432966    62.07341105
 H     22  19  18     1.090234665521   111.79615968   130.59689718
 H     22  19  18     1.092902623323   111.87995063   250.76370436
 H     22  19  18     1.087865281676   111.25864342    10.84542860
 H     25  23  20     1.087813424053   108.13087679   193.24939594
 H     25  23  20     1.090379910872   112.06919779   314.66374505
 H     25  23  20     1.092055159606   110.50754805    74.56045501
 H     28  27  26     1.092439327820   110.28311461   228.40621121
 H     29  28  27     1.092978321018   110.56698860   132.09706977
 H     31  28  27     1.092423451422   110.46789319   181.85517930
 H     31  28  27     1.092578376366   110.72768338   301.64546609
 H     31  28  27     1.090991084792   111.17086532    61.71455896
 H     32  29  28     1.093989303176   108.48655718   182.37815009
 H     32  29  28     1.094838061988   107.92861482   297.20798416
 H     33  32  29     1.091294590087   110.53826935   179.90369813
 H     33  32  29     1.091665379266   111.91938455   299.68319771
 H     33  32  29     1.091671815044   111.20540736    60.34421836
 H     39  36  35     1.088799048765   110.48320409   175.04821543
 H     39  36  35     1.094011147724   111.32130243   294.98593094
 H     39  36  35     1.093433088526   111.54865231    54.51817351
 H     42   2   1     1.091849334508   113.37941207   111.51741459
 H     46  45  43     1.086398841088   105.54728233   178.88567943
 H     46  45  43     1.089936063876   110.53595156   298.60678678
 H     46  45  43     1.089455128400   110.27975468    59.38828671
 H     47  16  14     1.088773145007   108.19933702    50.53344915
 H     47  16  14     1.088068223579   103.23631702   166.10474124
 H     48  47  16     1.083628784739   115.83976796   104.08948511
 H     50  49  48     1.093983941695   110.45088940   229.16933306
 H     50  49  48     1.088226384394   112.97161483   351.00163982
 H     50  49  48     1.093651004596   110.73587103   111.23748701
 H     51  49  48     1.092778788349   109.29289796    14.22799128
 H     51  49  48     1.096778797393   109.44133268   130.93652465
 H     52  51  49     1.092373284981   109.52725167   300.38175508
 H     52  51  49     1.095341275632   108.62729540    56.40608257
 H     53  52  51     1.095445035900   108.48320544   307.33132390
 H     53  52  51     1.097177209814   109.45417681    62.60794460
 H     54  53  52     1.098454942184   107.36408651    54.19429773
 H     55  54  53     1.090576583699   111.75846323   177.91528680
 H     55  54  53     1.094569733198   110.45303052   297.83874869
 H     55  54  53     1.090762170152   111.74678440    57.80211755
 H     56  54  53     1.095559821910   108.44451781   311.69982186
 H     56  54  53     1.097259055719   108.97760134    66.63796595
 H     57  56  54     1.091937445561   109.77554527   298.50983537
 H     57  56  54     1.096906114294   109.04324722    54.56233822
 H     58  57  56     1.095613864776   108.53095530   306.13502026
 H     58  57  56     1.097243751693   109.36323617    61.30525587
 H     59  58  57     1.098597074055   107.44770152    53.20559313
 H     60  59  58     1.090626968696   111.76967582   177.95116219
 H     60  59  58     1.094593528292   110.43686888   297.89346797
 H     60  59  58     1.090706996051   111.76467176    57.82550027
 H     61  59  58     1.095655424138   108.41286796   310.76719854
 H     61  59  58     1.097285926847   109.00396266    65.64718767
 H     62  61  59     1.092076323728   109.83485239   297.58197610
 H     62  61  59     1.096968748863   109.09748210    53.69540355
 H     63  62  61     1.095863261513   108.63552213   306.11394692
 H     63  62  61     1.097426304316   109.35985726    61.33229487
 H     64  63  62     1.097633898378   107.54332761    54.98227989
 H     65  64  63     1.092421699897   110.94023736   180.99111508
 H     65  64  63     1.094485645193   110.61227749   300.35308129
 H     65  64  63     1.090963986591   112.15366258    60.71309618
 H     66  64  63     1.092471391248   111.37373074   182.24209523
 H     66  64  63     1.092496296978   111.33562207   302.74848061
 H     66  64  63     1.094177512146   110.73766633    62.51731883

---------------------------
INTERNAL COORDINATES (A.U.)
---------------------------
 Mg     0   0   0     0.000000000000     0.00000000     0.00000000
 C      1   0   0     6.505991797524     0.00000000     0.00000000
 C      1   2   0     6.409065304457    89.27379526     0.00000000
 C      1   2   3     6.386850086860   178.68423197   127.32406749
 C      1   2   3     6.564096966928    89.40887264   180.53794777
 N      1   2   3     4.047288446795    43.58003832     0.11090155
 C      6   1   2     2.578893030389   127.41948713     1.07056829
 C      7   6   1     2.856723076216   111.43666168   176.00992723
 C      8   7   6     2.915653423005   102.10315393    13.46498825
 C      6   1   2     2.554696109289   122.48131868   182.42025883
 C      9   8   7     2.896104958687   112.45554488   104.11554453
 C      8   7   6     2.906360825736   112.30863114   250.91324535
 C     12   8   7     2.883361375856   114.02584502    53.55888874
 C     13  12   8     2.854463610248   112.26203018   185.25100837
 O     14  13  12     2.279277019441   124.91634702    27.21103301
 O     14  13  12     2.538733837904   111.24274088   205.97397103
 N      1   2   3     3.814366925553   134.95416498     2.25914019
 C     17   1   2     2.587588374058   126.21998472   357.41567272
 C     18  17   1     2.713971100383   109.92181242   180.07534682
 C     19  18  17     2.624083454077   106.43211159   359.96393603
 C     17   1   2     2.579034464300   126.01833725   177.40321797
 C     19  18  17     2.824432148189   124.02723872   181.27915309
 C     20  19  18     2.786361427781   128.85645071   179.71182275
 O     23  20  19     2.307250287016   121.87679999   164.28552897
 C     23  20  19     2.864719113314   119.39966630   343.32681133
 N      1   2   3     3.978164954745   133.35062424   179.73527050
 C     26   1   2     2.552888687702   123.04757831   180.13538757
 C     27  26   1     2.864650223531   111.29225075   184.78404961
 C     28  27  26     2.913267418852   102.47179288   347.04668041
 C     26   1   2     2.572461807314   126.46498462   359.75567540
 C     28  27  26     2.895588403900   111.18551198   107.93223998
 C     29  28  27     2.911284656720   113.89877928   253.64836923
 C     32  29  28     2.886078106402   114.67265954    59.92822059
 N      1   2   3     3.786617777878    46.27529949   181.22260356
 C     34   1   2     2.615254653263   131.90213610   179.70637604
 C     35  34   1     2.723093427866   110.46196832   181.46862980
 C     36  35  34     2.625301208774   104.75952235   359.71581260
 C     34   1   2     2.531964459500   122.23746672     0.94590271
 C     36  35  34     2.815791501295   126.78392204   179.45899266
 C     37  36  35     2.746981637170   144.14207541   180.44565283
 O     40  37  36     2.281452047607   130.77273245   357.90957225
 C      2   1   3     2.867748527220   164.53417584   179.98171429
 C     42   2   1     2.854403820509   114.45640537   236.65105402
 O     43  42   2     2.279280019613   125.14517354    25.93115015
 O     43  42   2     2.533406400642   110.83793086   204.57463086
 C     45  43  42     2.712535337980   115.92326041   185.66164535
 C     16  14  13     2.759617098303   116.07910134   180.41601552
 C     47  16  14     2.826859848010   112.72042119   287.76467119
 C     48  47  16     2.523845176134   125.37145776   286.60779164
 C     49  48  47     2.839368082549   123.69258929   359.50974429
 C     49  48  47     2.846808298409   120.23168817   177.26804634
 C     51  49  48     2.902338326063   113.37278381   252.54242440
 C     52  51  49     2.886279408555   112.44123692   177.67555540
 C     53  52  51     2.901037097162   114.97892410   185.78419736
 C     54  53  52     2.893218391368   111.79895102   295.86302091
 C     54  53  52     2.900939053356   110.12421088   170.89546266
 C     56  54  53     2.887473642633   115.12482927   189.93479190
 C     57  56  54     2.887614620867   112.67145119   175.80152829
 C     58  57  56     2.901122073921   115.15201269   184.36514357
 C     59  58  57     2.892671333365   111.75167665   294.87378157
 C     59  58  57     2.900927227981   110.14820679   169.92583379
 C     61  59  58     2.887541221928   115.22572765   188.99215594
 C     62  61  59     2.887478203888   112.66020692   175.06684628
 C     63  62  61     2.899338753422   115.19651454   184.22607196
 C     64  63  62     2.891950073612   112.40875057   296.34072602
 C     64  63  62     2.891287124070   110.45258640   172.42960905
 H      3   1   2     2.042958580139   178.22904167   254.25841233
 H      4   1  34     2.038819853800   178.66999951   195.24121964
 H      5   1   2     2.046012294774   179.35529804   265.21365120
 H      8   7   6     2.062300391075   110.11642317   130.73935530
 H      9   8   7     2.065846223204   111.22043992   226.33211750
 H     11   9   8     2.062299836019   111.26088326   184.14167391
 H     11   9   8     2.063416744447   110.63067436   304.35879309
 H     11   9   8     2.064120854749   110.43463281    63.94681169
 H     12   8   7     2.067492072269   108.36514711   175.82700546
 H     12   8   7     2.059915897756   109.92221944   291.20274690
 H     13  12   8     2.069836424820   110.08619827   303.74708667
 H     13  12   8     2.060314402381   112.47432966    62.07341105
 H     22  19  18     2.060244939543   111.79615968   130.59689718
 H     22  19  18     2.065286649124   111.87995063   250.76370436
 H     22  19  18     2.055767452968   111.25864342    10.84542860
 H     25  23  20     2.055669456264   108.13087679   193.24939594
 H     25  23  20     2.060519413477   112.06919779   314.66374505
 H     25  23  20     2.063685174790   110.50754805    74.56045501
 H     28  27  26     2.064411147505   110.28311461   228.40621121
 H     29  28  27     2.065429697037   110.56698860   132.09706977
 H     31  28  27     2.064381145461   110.46789319   181.85517930
 H     31  28  27     2.064673911177   110.72768338   301.64546609
 H     31  28  27     2.061674364807   111.17086532    61.71455896
 H     32  29  28     2.067340176442   108.48655718   182.37815009
 H     32  29  28     2.068944098150   107.92861482   297.20798416
 H     33  32  29     2.062247906694   110.53826935   179.90369813
 H     33  32  29     2.062948596695   111.91938455   299.68319771
 H     33  32  29     2.062960758553   111.20540736    60.34421836
 H     39  36  35     2.057532017041   110.48320409   175.04821543
 H     39  36  35     2.067381456656   111.32130243   294.98593094
 H     39  36  35     2.066289083081   111.54865231    54.51817351
 H     42   2   1     2.063296221725   113.37941207   111.51741459
 H     46  45  43     2.052996281866   105.54728233   178.88567943
 H     46  45  43     2.059680664210   110.53595156   298.60678678
 H     46  45  43     2.058771827873   110.27975468    59.38828671
 H     47  16  14     2.057483066032   108.19933702    50.53344915
 H     47  16  14     2.056150957587   103.23631702   166.10474124
 H     48  47  16     2.047761633991   115.83976796   104.08948511
 H     50  49  48     2.067330044711   110.45088940   229.16933306
 H     50  49  48     2.056449838212   112.97161483   351.00163982
 H     50  49  48     2.066700884774   110.73587103   111.23748701
 H     51  49  48     2.065052634938   109.29289796    14.22799128
 H     51  49  48     2.072611556565   109.44133268   130.93652465
 H     52  51  49     2.064286344627   109.52725167   300.38175508
 H     52  51  49     2.069895034124   108.62729540    56.40608257
 H     53  52  51     2.070091112614   108.48320544   307.33132390
 H     53  52  51     2.073364446928   109.45417681    62.60794460
 H     54  53  52     2.075779011180   107.36408651    54.19429773
 H     55  54  53     2.060891071258   111.75846323   177.91528680
 H     55  54  53     2.068437030224   110.45303052   297.83874869
 H     55  54  53     2.061241778830   111.74678440    57.80211755
 H     56  54  53     2.070308026738   108.44451781   311.69982186
 H     56  54  53     2.073519113274   108.97760134    66.63796595
 H     57  56  54     2.063462727485   109.77554527   298.50983537
 H     57  56  54     2.072852150640   109.04324722    54.56233822
 H     58  57  56     2.070410152953   108.53095530   306.13502026
 H     58  57  56     2.073490192857   109.36323617    61.30525587
 H     59  58  57     2.076047601491   107.44770152    53.20559313
 H     60  59  58     2.060986285105   111.76967582   177.95116219
 H     60  59  58     2.068481996434   110.43686888   297.89346797
 H     60  59  58     2.061137514889   111.76467176    57.82550027
 H     61  59  58     2.070488688765   108.41286796   310.76719854
 H     61  59  58     2.073569892347   109.00396266    65.64718767
 H     62  61  59     2.063725169186   109.83485239   297.58197610
 H     62  61  59     2.072970512822   109.09748210    53.69540355
 H     63  62  61     2.070881444485   108.63552213   306.11394692
 H     63  62  61     2.073835167319   109.35985726    61.33229487
 H     64  63  62     2.074227463243   107.54332761    54.98227989
 H     65  64  63     2.064377835557   110.94023736   180.99111508
 H     65  64  63     2.068278126922   110.61227749   300.35308129
 H     65  64  63     2.061623156628   112.15366258    60.71309618
 H     66  64  63     2.064471738602   111.37373074   182.24209523
 H     66  64  63     2.064518803611   111.33562207   302.74848061
 H     66  64  63     2.067695839851   110.73766633    62.51731883

---------------------
BASIS SET INFORMATION
---------------------
There are 5 groups of distinct atoms

 Group   1 Type Mg  : 14s8p3d contracted to 5s4p3d pattern {73211/5111/111}
 Group   2 Type C   : 11s6p2d1f contracted to 5s3p2d1f pattern {62111/411/11/1}
 Group   3 Type N   : 11s6p2d1f contracted to 5s3p2d1f pattern {62111/411/11/1}
 Group   4 Type O   : 11s6p2d1f contracted to 5s3p2d1f pattern {62111/411/11/1}
 Group   5 Type H   : 5s1p contracted to 3s1p pattern {311/1}

Atom   0Mg   basis set group =>   1
Atom   1C    basis set group =>   2
Atom   2C    basis set group =>   2
Atom   3C    basis set group =>   2
Atom   4C    basis set group =>   2
Atom   5N    basis set group =>   3
Atom   6C    basis set group =>   2
Atom   7C    basis set group =>   2
Atom   8C    basis set group =>   2
Atom   9C    basis set group =>   2
Atom  10C    basis set group =>   2
Atom  11C    basis set group =>   2
Atom  12C    basis set group =>   2
Atom  13C    basis set group =>   2
Atom  14O    basis set group =>   4
Atom  15O    basis set group =>   4
Atom  16N    basis set group =>   3
Atom  17C    basis set group =>   2
Atom  18C    basis set group =>   2
Atom  19C    basis set group =>   2
Atom  20C    basis set group =>   2
Atom  21C    basis set group =>   2
Atom  22C    basis set group =>   2
Atom  23O    basis set group =>   4
Atom  24C    basis set group =>   2
Atom  25N    basis set group =>   3
Atom  26C    basis set group =>   2
Atom  27C    basis set group =>   2
Atom  28C    basis set group =>   2
Atom  29C    basis set group =>   2
Atom  30C    basis set group =>   2
Atom  31C    basis set group =>   2
Atom  32C    basis set group =>   2
Atom  33N    basis set group =>   3
Atom  34C    basis set group =>   2
Atom  35C    basis set group =>   2
Atom  36C    basis set group =>   2
Atom  37C    basis set group =>   2
Atom  38C    basis set group =>   2
Atom  39C    basis set group =>   2
Atom  40O    basis set group =>   4
Atom  41C    basis set group =>   2
Atom  42C    basis set group =>   2
Atom  43O    basis set group =>   4
Atom  44O    basis set group =>   4
Atom  45C    basis set group =>   2
Atom  46C    basis set group =>   2
Atom  47C    basis set group =>   2
Atom  48C    basis set group =>   2
Atom  49C    basis set group =>   2
Atom  50C    basis set group =>   2
Atom  51C    basis set group =>   2
Atom  52C    basis set group =>   2
Atom  53C    basis set group =>   2
Atom  54C    basis set group =>   2
Atom  55C    basis set group =>   2
Atom  56C    basis set group =>   2
Atom  57C    basis set group =>   2
Atom  58C    basis set group =>   2
Atom  59C    basis set group =>   2
Atom  60C    basis set group =>   2
Atom  61C    basis set group =>   2
Atom  62C    basis set group =>   2
Atom  63C    basis set group =>   2
Atom  64C    basis set group =>   2
Atom  65C    basis set group =>   2
Atom  66H    basis set group =>   5
Atom  67H    basis set group =>   5
Atom  68H    basis set group =>   5
Atom  69H    basis set group =>   5
Atom  70H    basis set group =>   5
Atom  71H    basis set group =>   5
Atom  72H    basis set group =>   5
Atom  73H    basis set group =>   5
Atom  74H    basis set group =>   5
Atom  75H    basis set group =>   5
Atom  76H    basis set group =>   5
Atom  77H    basis set group =>   5
Atom  78H    basis set group =>   5
Atom  79H    basis set group =>   5
Atom  80H    basis set group =>   5
Atom  81H    basis set group =>   5
Atom  82H    basis set group =>   5
Atom  83H    basis set group =>   5
Atom  84H    basis set group =>   5
Atom  85H    basis set group =>   5
Atom  86H    basis set group =>   5
Atom  87H    basis set group =>   5
Atom  88H    basis set group =>   5
Atom  89H    basis set group =>   5
Atom  90H    basis set group =>   5
Atom  91H    basis set group =>   5
Atom  92H    basis set group =>   5
Atom  93H    basis set group =>   5
Atom  94H    basis set group =>   5
Atom  95H    basis set group =>   5
Atom  96H    basis set group =>   5
Atom  97H    basis set group =>   5
Atom  98H    basis set group =>   5
Atom  99H    basis set group =>   5
Atom 100H    basis set group =>   5
Atom 101H    basis set group =>   5
Atom 102H    basis set group =>   5
Atom 103H    basis set group =>   5
Atom 104H    basis set group =>   5
Atom 105H    basis set group =>   5
Atom 106H    basis set group =>   5
Atom 107H    basis set group =>   5
Atom 108H    basis set group =>   5
Atom 109H    basis set group =>   5
Atom 110H    basis set group =>   5
Atom 111H    basis set group =>   5
Atom 112H    basis set group =>   5
Atom 113H    basis set group =>   5
Atom 114H    basis set group =>   5
Atom 115H    basis set group =>   5
Atom 116H    basis set group =>   5
Atom 117H    basis set group =>   5
Atom 118H    basis set group =>   5
Atom 119H    basis set group =>   5
Atom 120H    basis set group =>   5
Atom 121H    basis set group =>   5
Atom 122H    basis set group =>   5
Atom 123H    basis set group =>   5
Atom 124H    basis set group =>   5
Atom 125H    basis set group =>   5
Atom 126H    basis set group =>   5
Atom 127H    basis set group =>   5
Atom 128H    basis set group =>   5
Atom 129H    basis set group =>   5
Atom 130H    basis set group =>   5
Atom 131H    basis set group =>   5
Atom 132H    basis set group =>   5
Atom 133H    basis set group =>   5
Atom 134H    basis set group =>   5
Atom 135H    basis set group =>   5
Atom 136H    basis set group =>   5
Atom 137H    basis set group =>   5
Atom 138H    basis set group =>   5
Atom 139H    basis set group =>   5
---------------------------------
AUXILIARY/J BASIS SET INFORMATION
---------------------------------
There are 5 groups of distinct atoms

 Group   1 Type Mg  : 14s5p5d2f1g contracted to 8s4p4d1f1g pattern {71111111/2111/2111/2/1}
 Group   2 Type C   : 12s5p4d2f1g contracted to 6s4p3d1f1g pattern {711111/2111/211/2/1}
 Group   3 Type N   : 12s5p4d2f1g contracted to 6s4p3d1f1g pattern {711111/2111/211/2/1}
 Group   4 Type O   : 12s5p4d2f1g contracted to 6s4p3d1f1g pattern {711111/2111/211/2/1}
 Group   5 Type H   : 5s2p1d contracted to 3s1p1d pattern {311/2/1}

Atom   0Mg   basis set group =>   1
Atom   1C    basis set group =>   2
Atom   2C    basis set group =>   2
Atom   3C    basis set group =>   2
Atom   4C    basis set group =>   2
Atom   5N    basis set group =>   3
Atom   6C    basis set group =>   2
Atom   7C    basis set group =>   2
Atom   8C    basis set group =>   2
Atom   9C    basis set group =>   2
Atom  10C    basis set group =>   2
Atom  11C    basis set group =>   2
Atom  12C    basis set group =>   2
Atom  13C    basis set group =>   2
Atom  14O    basis set group =>   4
Atom  15O    basis set group =>   4
Atom  16N    basis set group =>   3
Atom  17C    basis set group =>   2
Atom  18C    basis set group =>   2
Atom  19C    basis set group =>   2
Atom  20C    basis set group =>   2
Atom  21C    basis set group =>   2
Atom  22C    basis set group =>   2
Atom  23O    basis set group =>   4
Atom  24C    basis set group =>   2
Atom  25N    basis set group =>   3
Atom  26C    basis set group =>   2
Atom  27C    basis set group =>   2
Atom  28C    basis set group =>   2
Atom  29C    basis set group =>   2
Atom  30C    basis set group =>   2
Atom  31C    basis set group =>   2
Atom  32C    basis set group =>   2
Atom  33N    basis set group =>   3
Atom  34C    basis set group =>   2
Atom  35C    basis set group =>   2
Atom  36C    basis set group =>   2
Atom  37C    basis set group =>   2
Atom  38C    basis set group =>   2
Atom  39C    basis set group =>   2
Atom  40O    basis set group =>   4
Atom  41C    basis set group =>   2
Atom  42C    basis set group =>   2
Atom  43O    basis set group =>   4
Atom  44O    basis set group =>   4
Atom  45C    basis set group =>   2
Atom  46C    basis set group =>   2
Atom  47C    basis set group =>   2
Atom  48C    basis set group =>   2
Atom  49C    basis set group =>   2
Atom  50C    basis set group =>   2
Atom  51C    basis set group =>   2
Atom  52C    basis set group =>   2
Atom  53C    basis set group =>   2
Atom  54C    basis set group =>   2
Atom  55C    basis set group =>   2
Atom  56C    basis set group =>   2
Atom  57C    basis set group =>   2
Atom  58C    basis set group =>   2
Atom  59C    basis set group =>   2
Atom  60C    basis set group =>   2
Atom  61C    basis set group =>   2
Atom  62C    basis set group =>   2
Atom  63C    basis set group =>   2
Atom  64C    basis set group =>   2
Atom  65C    basis set group =>   2
Atom  66H    basis set group =>   5
Atom  67H    basis set group =>   5
Atom  68H    basis set group =>   5
Atom  69H    basis set group =>   5
Atom  70H    basis set group =>   5
Atom  71H    basis set group =>   5
Atom  72H    basis set group =>   5
Atom  73H    basis set group =>   5
Atom  74H    basis set group =>   5
Atom  75H    basis set group =>   5
Atom  76H    basis set group =>   5
Atom  77H    basis set group =>   5
Atom  78H    basis set group =>   5
Atom  79H    basis set group =>   5
Atom  80H    basis set group =>   5
Atom  81H    basis set group =>   5
Atom  82H    basis set group =>   5
Atom  83H    basis set group =>   5
Atom  84H    basis set group =>   5
Atom  85H    basis set group =>   5
Atom  86H    basis set group =>   5
Atom  87H    basis set group =>   5
Atom  88H    basis set group =>   5
Atom  89H    basis set group =>   5
Atom  90H    basis set group =>   5
Atom  91H    basis set group =>   5
Atom  92H    basis set group =>   5
Atom  93H    basis set group =>   5
Atom  94H    basis set group =>   5
Atom  95H    basis set group =>   5
Atom  96H    basis set group =>   5
Atom  97H    basis set group =>   5
Atom  98H    basis set group =>   5
Atom  99H    basis set group =>   5
Atom 100H    basis set group =>   5
Atom 101H    basis set group =>   5
Atom 102H    basis set group =>   5
Atom 103H    basis set group =>   5
Atom 104H    basis set group =>   5
Atom 105H    basis set group =>   5
Atom 106H    basis set group =>   5
Atom 107H    basis set group =>   5
Atom 108H    basis set group =>   5
Atom 109H    basis set group =>   5
Atom 110H    basis set group =>   5
Atom 111H    basis set group =>   5
Atom 112H    basis set group =>   5
Atom 113H    basis set group =>   5
Atom 114H    basis set group =>   5
Atom 115H    basis set group =>   5
Atom 116H    basis set group =>   5
Atom 117H    basis set group =>   5
Atom 118H    basis set group =>   5
Atom 119H    basis set group =>   5
Atom 120H    basis set group =>   5
Atom 121H    basis set group =>   5
Atom 122H    basis set group =>   5
Atom 123H    basis set group =>   5
Atom 124H    basis set group =>   5
Atom 125H    basis set group =>   5
Atom 126H    basis set group =>   5
Atom 127H    basis set group =>   5
Atom 128H    basis set group =>   5
Atom 129H    basis set group =>   5
Atom 130H    basis set group =>   5
Atom 131H    basis set group =>   5
Atom 132H    basis set group =>   5
Atom 133H    basis set group =>   5
Atom 134H    basis set group =>   5
Atom 135H    basis set group =>   5
Atom 136H    basis set group =>   5
Atom 137H    basis set group =>   5
Atom 138H    basis set group =>   5
Atom 139H    basis set group =>   5


           ************************************************************
           *        Program running with 4 parallel MPI-processes     *
           *              working on a common directory               *
           ************************************************************
------------------------------------------------------------------------------
                             ORCA STARTUP CALCULATIONS
                           -- RI-GTO INTEGRALS CHOSEN --
------------------------------------------------------------------------------
------------------------------------------------------------------------------
                   ___                                                        
                  /   \      - P O W E R E D   B Y -                         
                 /     \                                                     
                 |  |  |   _    _      __       _____    __    __             
                 |  |  |  | |  | |    /  \     |  _  \  |  |  /  |          
                  \  \/   | |  | |   /    \    | | | |  |  | /  /          
                 / \  \   | |__| |  /  /\  \   | |_| |  |  |/  /          
                |  |  |   |  __  | /  /__\  \  |    /   |      \           
                |  |  |   | |  | | |   __   |  |    \   |  |\   \          
                \     /   | |  | | |  |  |  |  | |\  \  |  | \   \       
                 \___/    |_|  |_| |__|  |__|  |_| \__\ |__|  \__/        
                                                                              
                      - O R C A' S   B I G   F R I E N D -                    
                                      &                                       
                       - I N T E G R A L  F E E D E R -                       
                                                                              
 v1 FN, 2020, v2 2021, v3 2022-2024                                           
------------------------------------------------------------------------------


----------------------
SHARK INTEGRAL PACKAGE
----------------------

Number of atoms                             ...    140
Number of basis functions                   ...   2491
Number of shells                            ...   1023
Maximum angular momentum                    ...      3
Integral batch strategy                     ... SHARK/LIBINT Hybrid
RI-J (if used) integral strategy            ... SPLIT-RIJ (Revised 2003 algorithm where possible)
Printlevel                                  ...      1
Contraction scheme used                     ... SEGMENTED contraction
Prescreening option                         ... SCHWARTZ
   Thresh                                   ... 2.500e-11
   Tcut                                     ... 2.500e-12
   Tpresel                                  ... 2.500e-12 
Coulomb Range Separation                    ... NOT USED
Exchange Range Separation                   ... Long Range
   Mu parameter                             ... 2.500e-01
   Scaling (regular/separated)              ... 1.957e-01 8.043e-01
Robust (split-)RI terms used:
  metric    (central integrals)             ... YES
  density   (r.h.s.  integrals)             ... YES
  potential (l.h.s.  integrals)             ... YES
Multipole approximations                    ... NOT USED
Finite Nucleus Model                        ... NOT USED
CABS basis                                  ... NOT available
Auxiliary Coulomb fitting basis             ... AVAILABLE
   # of basis functions in Aux-J            ...   4055
   # of shells in Aux-J                     ...   1363
   Maximum angular momentum in Aux-J        ...      4
Auxiliary J/K fitting basis                 ... NOT available
Auxiliary Correlation fitting basis         ... NOT available
Auxiliary 'external' fitting basis          ... NOT available

Checking pre-screening integrals            ... done (  0.0 sec) Dimension = 1023
   => SHARK Basis and OBASIS are compatible. Storing Pre-screening
Shell pair information
Shell pair cut-off parameter TPreSel        ...   2.5e-12
Total number of shell pairs                 ...    523776
Shell pairs after pre-screening             ...    164136
Total number of primitive shell pairs       ...   1567252
Primitive shell pairs kept                  ...    307296
          la=0 lb=0:  46449 shell pairs
          la=1 lb=0:  50218 shell pairs
          la=1 lb=1:  13669 shell pairs
          la=2 lb=0:  21579 shell pairs
          la=2 lb=1:  11988 shell pairs
          la=2 lb=2:   2659 shell pairs
          la=3 lb=0:   9541 shell pairs
          la=3 lb=1:   5353 shell pairs
          la=3 lb=2:   2192 shell pairs
          la=3 lb=3:    488 shell pairs

Checking whether 4 symmetric matrices of dimension 2491 fit in memory
:Max Core in MB      =   2200.00
 MB in use           =    194.75
 MB left             =   2005.25
 MB needed           =     94.72
 Data fit in memory  = YES
Calculating RI/J V-Matrix + Cholesky decomp.... done (  1.7 sec)
Calculating Nuclear repulsion               ... done (  0.0 sec) ENN=   9704.014104954542 Eh

Diagonalization of the overlap matrix:
Smallest eigenvalue                        ... 3.958e-06
Time for diagonalization                   ...    2.939 sec
Threshold for overlap eigenvalues          ... 1.000e-07
Number of eigenvalues below threshold      ... 0
Time for construction of square roots      ...    2.774 sec
Total time needed                          ...    5.791 sec

-------------------
DFT GRID GENERATION
-------------------

General Integration Accuracy     IntAcc      ... 4.959
Radial Grid Type                 RadialGrid  ... OptM3 with GC (2021)
Angular Grid (max. ang.)         AngularGrid ... 6 (Lebedev-590)
Angular grid pruning method      GridPruning ... 4 (adaptive)
Weight generation scheme         WeightScheme... mBecke (2022)
Basis function cutoff            BFCut       ... 1.0000e-11
Integration weight cutoff        WCut        ... 1.0000e-14
Partially contracted basis set               ... off
Rotationally invariant grid construction     ... off
Angular grids for H and He will be reduced by one unit

Total number of grid points                  ...  1550343
Total number of batches                      ...    24295
Average number of points per batch           ...       63
Average number of grid points per atom       ...    11074

--------------------
COSX GRID GENERATION
--------------------

GRIDX 1
-------
General Integration Accuracy     IntAcc      ... 4.020
Radial Grid Type                 RadialGrid  ... OptM3 with GC (2021)
Angular Grid (max. ang.)         AngularGrid ... 2 (Lebedev-110)
Angular grid pruning method      GridPruning ... 4 (adaptive)
Weight generation scheme         WeightScheme... mBecke (2022)
Basis function cutoff            BFCut       ... 1.0000e-11
Integration weight cutoff        WCut        ... 1.0000e-14
Partially contracted basis set               ... on
Rotationally invariant grid construction     ... off
Angular grids for H and He will be reduced by one unit

Total number of grid points                  ...   166667
Total number of batches                      ...     1381
Average number of points per batch           ...      120
Average number of grid points per atom       ...     1190
UseSFitting                                  ... on

GRIDX 2
-------
General Integration Accuracy     IntAcc      ... 4.338
Radial Grid Type                 RadialGrid  ... OptM3 with GC (2021)
Angular Grid (max. ang.)         AngularGrid ... 3 (Lebedev-194)
Angular grid pruning method      GridPruning ... 4 (adaptive)
Weight generation scheme         WeightScheme... mBecke (2022)
Basis function cutoff            BFCut       ... 1.0000e-11
Integration weight cutoff        WCut        ... 1.0000e-14
Partially contracted basis set               ... on
Rotationally invariant grid construction     ... off
Angular grids for H and He will be reduced by one unit

Total number of grid points                  ...   361890
Total number of batches                      ...     2898
Average number of points per batch           ...      124
Average number of grid points per atom       ...     2585
UseSFitting                                  ... on

GRIDX 3
-------
General Integration Accuracy     IntAcc      ... 4.871
Radial Grid Type                 RadialGrid  ... OptM3 with GC (2021)
Angular Grid (max. ang.)         AngularGrid ... 4 (Lebedev-302)
Angular grid pruning method      GridPruning ... 4 (adaptive)
Weight generation scheme         WeightScheme... mBecke (2022)
Basis function cutoff            BFCut       ... 1.0000e-11
Integration weight cutoff        WCut        ... 1.0000e-14
Partially contracted basis set               ... on
Rotationally invariant grid construction     ... off
Angular grids for H and He will be reduced by one unit

Total number of grid points                  ...   686566
Total number of batches                      ...     5439
Average number of points per batch           ...      126
Average number of grid points per atom       ...     4904
UseSFitting                                  ... on
Grids setup in  71.4 sec
Initializing property integral containers    ... done (  0.0 sec)

SHARK setup successfully completed in  83.0 seconds

Maximum memory used throughout the entire STARTUP-calculation: 552.1 MB


           ************************************************************
           *        Program running with 4 parallel MPI-processes     *
           *              working on a common directory               *
           ************************************************************
-------------------------------------------------------------------------------
                                 ORCA GUESS
                   Start orbitals & Density for SCF / CASSCF
-------------------------------------------------------------------------------

------------
SCF SETTINGS
------------
Hamiltonian:
 Density Functional     Method          .... DFT(GTOs)
 Exchange Functional    Exchange        .... WB97X-D3
 Correlation Functional Correlation     .... WB97X-D3
 Gradients option       PostSCFGGA      .... off
 Hybrid DFT is turned on
   Fraction HF Exchange ScalHFX         ....  0.195728
   Scaling of DF-GGA-X  ScalDFX         ....  0.000000
   Scaling of DF-GGA-C  ScalDFC         ....  1.000000
   Scaling of DF-LDA-C  ScalLDAC        ....  1.000000
   Perturbative correction              ....  0.000000
 Long-range corrected/Screened/Range-Separated Hybrid DFT is turned on
   Amount of maximum screened exact exchange              ....  0.804272
   Range separation parameter mu (erf(mu*r12)/r12)        ....  0.250000
 RI-approximation to the Coulomb term is turned on
   Number of AuxJ basis functions       .... 4055
   RIJ-COSX (HFX calculated with COS-X)).... on


General Settings:
 Integral files         IntName         .... tddft
 Hartree-Fock type      HFTyp           .... RHF
 Total Charge           Charge          ....    0
 Multiplicity           Mult            ....    1
 Number of Electrons    NEL             ....  492
 Basis Dimension        Dim             .... 2491
 Nuclear Repulsion      ENuc            ....   9704.0141049545 Eh

Convergence Acceleration:
 AO-DIIS                CNVDIIS         .... on
   Start iteration      DIISMaxIt       ....    12
   Startup error        DIISStart       ....  0.200000
   # of expansion vecs  DIISMaxEq       ....     5
   Bias factor          DIISBfac        ....   1.050
   Max. coefficient     DIISMaxC        ....  10.000
 MO-DIIS                CNVKDIIS        .... off
 Trust-Rad. Augm. Hess. CNVTRAH         .... auto
   Auto Start mean grad. ratio tolernc. ....  1.125000
   Auto Start start iteration           ....    50
   Auto Start num. interpolation iter.  ....    10
   Max. Number of Micro iterations      ....    24
   Max. Number of Macro iterations      .... Maxiter - #DIIS iter
   Number of Davidson start vectors     ....     2
   Converg. threshold    (grad. norm)   ....   1.000e-05
   Grad. Scal. Fac. for Micro threshold ....   0.100
   Minimum threshold for Micro iter.    ....   1.000e-02
   NR start threshold (gradient norm)   ....   1.000e-04
   Initial trust radius                 ....   0.400
   Minimum AH scaling param. (alpha)    ....   1.000
   Maximum AH scaling param. (alpha)    .... 1000.000
   Quad. conv. algorithm                .... NR
   White noise on init. David. guess    .... on
   Maximum white noise                  ....   0.010
   Pseudo random numbers                .... off
   Inactive MOs                         .... canonical
   Orbital update algorithm             .... Taylor
   Preconditioner                       .... Diag
   Full preconditioner red. dimension   ....   250
 SOSCF                 CNVSOSCF           .... on
   Start iteration     SOSCFMaxIt         ....   150
   Startup grad/error  SOSCFStart         ....  0.003300
   Hessian update      SOSCFHessUp        .... L-BFGS
   Autom. constraints  SOSCFAutoConstrain .... off
 Level Shifting         CNVShift        .... on
   Level shift para.    LevelShift      ....    0.2500
   Turn off err/grad.   ShiftErr        ....    0.0010
 Zerner damping         CNVZerner       .... off
 Static damping         CNVDamp         .... on
   Fraction old density DampFac         ....    0.7000
   Max. Damping (<1)    DampMax         ....    0.9800
   Min. Damping (>=0)   DampMin         ....    0.0000
   Turn off err/grad.   DampErr         ....    0.1000

SCF Procedure:
 Maximum # iterations   MaxIter         ....   125
 SCF integral mode      SCFMode         .... Direct
   Integral package                     .... SHARK and LIBINT hybrid scheme
 Reset frequency        DirectResetFreq ....    20
 Integral Threshold     Thresh          ....  2.500e-11 Eh
 Primitive CutOff       TCut            ....  2.500e-12 Eh

Convergence Tolerance:
 Convergence Check Mode ConvCheckMode   .... Total+1el-Energy
 Convergence forced     ConvForced      .... 1
 Energy Change          TolE            ....  1.000e-08 Eh
 1-El. energy change                    ....  1.000e-05 Eh
 Orbital Gradient       TolG            ....  1.000e-05
 Orbital Rotation angle TolX            ....  1.000e-05
 DIIS Error             TolErr          ....  5.000e-07

------------------------------
INITIAL GUESS: MODEL POTENTIAL
------------------------------
Loading Hartree-Fock densities                     ... done
Calculating cut-offs                               ... done
Initializing the effective Hamiltonian             ... done
Setting up the integral package (SHARK)            ... done
Starting the Coulomb interaction                   ... done (  17.9 sec)
Making the grid                                    ... done (   3.2 sec)
Mapping shells                                     ... done
Starting the XC term evaluation                    ... done (   3.1 sec)
  promolecular density results
     # of electrons  =    491.948447275
     EX              =   -394.535206372
     EC              =    -16.547736374
     EX+EC           =   -411.082942746
Transforming the Hamiltonian                       ... done (   1.3 sec)
Diagonalizing the Hamiltonian                      ... done (   2.0 sec)
Back transforming the eigenvectors                 ... done (   0.8 sec)
Now organizing SCF variables                       ... done
                      ------------------
                      INITIAL GUESS DONE (  29.1 sec)
                      ------------------
             **** ENERGY FILE WAS UPDATED (tddft.en.tmp) ****
Finished Guess after  37.2 sec
Maximum memory used throughout the entire GUESS-calculation: 365.9 MB


           ************************************************************
           *        Program running with 4 parallel MPI-processes     *
           *              working on a common directory               *
           ************************************************************

-------------------------------------------------------------------------------------------
                                      ORCA LEAN-SCF
                              memory conserving SCF solver
-------------------------------------------------------------------------------------------

--------------------
CPCM SOLVATION MODEL
--------------------
CPCM parameters:
  Epsilon                                         ...       8.9990
  Refrac                                          ...       1.4242
  Rsolv                                           ...       1.3000
  Surface type                                    ... GAUSSIAN VDW
  Discretization scheme                           ... Constant charge density
    Threshold for H atoms                         ...       5.0000 (charges/Ang^2)
    Threshold for non-H atoms                     ...       5.0000 (charges/Ang^2)
  Epsilon function type                           ...         CPCM
Solvent:                                          ... DICHLOROMETHANE
Radii:
  Scheme                                          ... Element-dependent radii
  Radius for Mg used is    3.9231 Bohr (=   2.0760 Ang.)
  Radius for C  used is    3.8550 Bohr (=   2.0400 Ang.)
  Radius for N  used is    3.5149 Bohr (=   1.8600 Ang.)
  Radius for O  used is    3.4469 Bohr (=   1.8240 Ang.)
  Radius for H  used is    2.4944 Bohr (=   1.3200 Ang.)
Calculating surface                               ...        done! (  0.1s)
Cavity surface points                             ...        10985
Cavity Volume                                     ...    7536.7882
Cavity Surface-area                               ...    3697.7046
Calculating surface distance matrix               ...        done! (  2.5s)
Performing Cholesky decomposition & store         ...        done! ( 14.2s)
Overall time for CPCM initialization              ...                16.8s

----------------------------------------D-I-I-S--------------------------------------------
Iteration    Energy (Eh)           Delta-E    RMSDP     MaxDP     DIISErr   Damp  Time(sec)
-------------------------------------------------------------------------------------------
               ***  Starting incremental Fock matrix formation  ***
    1    -3009.5374025429209723     0.00e+00  1.18e-03  1.23e-01  2.70e-01  0.700 873.1
    2    -3010.2540212575677288    -7.17e-01  1.05e-03  1.38e-01  1.30e-01  0.700 357.4
                               ***Turning on AO-DIIS***
    3    -3010.6171977136546047    -3.63e-01  6.07e-04  7.03e-02  5.60e-02  0.700 347.5
    4    -3010.8346767376315256    -2.17e-01  1.35e-03  1.39e-01  3.99e-02  0.000 345.8
    5    -3011.3027643031728076    -4.68e-01  1.58e-04  2.78e-02  7.02e-03  0.000 381.6
    6    -3011.3039912443709909    -1.23e-03  6.07e-05  6.38e-03  4.60e-03  0.000 290.8
                              *** Initializing SOSCF ***
---------------------------------------S-O-S-C-F--------------------------------------
Iteration    Energy (Eh)           Delta-E    RMSDP     MaxDP     MaxGrad    Time(sec)
--------------------------------------------------------------------------------------
    7    -3011.3042979718593415    -3.07e-04  4.23e-05  5.63e-03  8.65e-04   285.9
               *** Restarting incremental Fock matrix formation ***
    8    -3011.3043966426048428    -9.87e-05  9.44e-05  7.01e-03  1.17e-03  1009.8
    9    -3011.3044634191701334    -6.68e-05  1.02e-04  6.73e-03  6.72e-04   694.9
   10    -3011.3045141470338422    -5.07e-05  6.50e-05  4.92e-03  5.10e-04   707.3
   11    -3011.3045329598517128    -1.88e-05  5.17e-05  3.56e-03  4.37e-04   671.4
   12    -3011.3045456491236109    -1.27e-05  2.80e-05  3.80e-03  2.16e-04   632.6
   13    -3011.3045514443128923    -5.80e-06  1.78e-05  1.63e-03  6.41e-05   568.4
   14    -3011.3045519766710640    -5.32e-07  7.81e-06  8.60e-04  3.58e-05   537.6
   15    -3011.3045522021111537    -2.25e-07  8.94e-06  1.07e-03  2.57e-05   419.2
   16    -3011.3045522803331551    -7.82e-08  8.82e-06  1.45e-03  1.64e-05   410.0
   17    -3011.3045523255641456    -4.52e-08  9.31e-06  1.30e-03  7.23e-06   401.7
   18    -3011.3045523114815296     1.41e-08  8.37e-06  1.33e-03  3.42e-06   394.3
   19    -3011.3045523042455898     7.24e-09  4.82e-06  5.05e-04  1.51e-06   372.6
                 **** Energy Check signals convergence ****

               *****************************************************
               *                     SUCCESS                       *
               *           SCF CONVERGED AFTER  19 CYCLES          *
               *****************************************************

Recomputing exchange energy using gridx3       ... done ( 1666.555 sec)
Old exchange energy                            :   -131.760855414 Eh
New exchange energy                            :   -131.760834361 Eh
Exchange energy change after final integration :      0.000021053 Eh
Total energy after final integration           :  -3011.304531267 Eh
             **** ENERGY FILE WAS UPDATED (tddft.en.tmp) ****

----------------
TOTAL SCF ENERGY
----------------

Total Energy       :      -3011.30453126746715 Eh          -81941.76213 eV

Components:
Nuclear Repulsion  :       9704.01410495454184 Eh          264059.64833 eV
Electronic Energy  :     -12715.27322639650993 Eh         -346000.17480 eV
One Electron Energy:     -23430.90066452814062 Eh         -637587.22139 eV
Two Electron Energy:      10715.62743813163070 Eh          291587.04659 eV
CPCM Dielectric    :         -0.04543087851362 Eh              -1.23624 eV

Virial components:
Potential Energy   :      -6008.50187575862583 Eh         -163499.64820 eV
Kinetic Energy     :       2997.19734449115913 Eh           81557.88607 eV
Virial Ratio       :          2.00470679276499

DFT components:
N(Alpha)           :      245.999982560885 electrons
N(Beta)            :      245.999982560885 electrons
N(Total)           :      491.999965121770 electrons
E(XC)              :     -290.478732172296 Eh       

CPCM Solvation Model Properties:
Surface-charge          :         -0.06744071213958
Corrected charge        :         -0.00000000000000
Outlying charge corr.   :          0.00012411720043 Eh               0.00338 eV
Free-energy (cav+disp)  :  This term is not implemented in the current solvation scheme

---------------
SCF CONVERGENCE
---------------

  Last Energy change         ...   -7.2359e-09  Tolerance :   1.0000e-08
  Last MAX-Density change    ...    5.0474e-04  Tolerance :   1.0000e-07
  Last RMS-Density change    ...    4.8229e-06  Tolerance :   5.0000e-09
  Last DIIS Error            ...    8.6540e-04  Tolerance :   5.0000e-07
  Last Orbital Gradient      ...    1.5131e-06  Tolerance :   1.0000e-05
  Last Orbital Rotation      ...    2.1728e-05  Tolerance :   1.0000e-05


----------------
ORBITAL ENERGIES
----------------

  NO   OCC          E(Eh)            E(eV) 
   0   2.0000     -46.863776     -1275.2282 
   1   2.0000     -19.286191      -524.8039 
   2   2.0000     -19.278014      -524.5814 
   3   2.0000     -19.228809      -523.2425 
   4   2.0000     -19.227774      -523.2143 
   5   2.0000     -19.222805      -523.0791 
   6   2.0000     -19.221209      -523.0357 
   7   2.0000     -14.440043      -392.9335 
   8   2.0000     -14.434442      -392.7811 
   9   2.0000     -14.416101      -392.2821 
  10   2.0000     -14.410802      -392.1379 
  11   2.0000     -10.418187      -283.4933 
  12   2.0000     -10.410825      -283.2929 
  13   2.0000     -10.383515      -282.5498 
  14   2.0000     -10.377511      -282.3864 
  15   2.0000     -10.330805      -281.1155 
  16   2.0000     -10.327408      -281.0231 
  17   2.0000     -10.324653      -280.9481 
  18   2.0000     -10.324614      -280.9470 
  19   2.0000     -10.324128      -280.9338 
  20   2.0000     -10.322469      -280.8887 
  21   2.0000     -10.321681      -280.8672 
  22   2.0000     -10.316523      -280.7269 
  23   2.0000     -10.310897      -280.5738 
  24   2.0000     -10.309762      -280.5429 
  25   2.0000     -10.309725      -280.5419 
  26   2.0000     -10.302966      -280.3580 
  27   2.0000     -10.297121      -280.1989 
  28   2.0000     -10.293881      -280.1107 
  29   2.0000     -10.290561      -280.0204 
  30   2.0000     -10.290398      -280.0160 
  31   2.0000     -10.290103      -280.0079 
  32   2.0000     -10.289470      -279.9907 
  33   2.0000     -10.286866      -279.9198 
  34   2.0000     -10.285134      -279.8727 
  35   2.0000     -10.283620      -279.8315 
  36   2.0000     -10.282348      -279.7969 
  37   2.0000     -10.280894      -279.7573 
  38   2.0000     -10.278137      -279.6823 
  39   2.0000     -10.277284      -279.6591 
  40   2.0000     -10.274874      -279.5935 
  41   2.0000     -10.272696      -279.5343 
  42   2.0000     -10.272329      -279.5243 
  43   2.0000     -10.272087      -279.5177 
  44   2.0000     -10.270769      -279.4818 
  45   2.0000     -10.270572      -279.4765 
  46   2.0000     -10.270316      -279.4695 
  47   2.0000     -10.269390      -279.4443 
  48   2.0000     -10.268988      -279.4334 
  49   2.0000     -10.267699      -279.3983 
  50   2.0000     -10.266413      -279.3633 
  51   2.0000     -10.265735      -279.3449 
  52   2.0000     -10.265566      -279.3403 
  53   2.0000     -10.265395      -279.3356 
  54   2.0000     -10.261248      -279.2227 
  55   2.0000     -10.259408      -279.1727 
  56   2.0000     -10.259205      -279.1672 
  57   2.0000     -10.259022      -279.1622 
  58   2.0000     -10.258840      -279.1572 
  59   2.0000     -10.258798      -279.1561 
  60   2.0000     -10.258759      -279.1550 
  61   2.0000     -10.258654      -279.1522 
  62   2.0000     -10.254001      -279.0256 
  63   2.0000     -10.253892      -279.0226 
  64   2.0000     -10.253633      -279.0155 
  65   2.0000     -10.253031      -278.9992 
  66   2.0000      -3.173611       -86.3583 
  67   2.0000      -1.911523       -52.0152 
  68   2.0000      -1.906461       -51.8774 
  69   2.0000      -1.905542       -51.8524 
  70   2.0000      -1.234394       -33.5896 
  71   2.0000      -1.225227       -33.3401 
  72   2.0000      -1.169809       -31.8321 
  73   2.0000      -1.163245       -31.6535 
  74   2.0000      -1.144965       -31.1561 
  75   2.0000      -1.137588       -30.9554 
  76   2.0000      -1.091131       -29.6912 
  77   2.0000      -1.082276       -29.4502 
  78   2.0000      -1.080967       -29.4146 
  79   2.0000      -1.071484       -29.1566 
  80   2.0000      -0.970758       -26.4157 
  81   2.0000      -0.948203       -25.8019 
  82   2.0000      -0.939470       -25.5643 
  83   2.0000      -0.937084       -25.4994 
  84   2.0000      -0.934209       -25.4211 
  85   2.0000      -0.929078       -25.2815 
  86   2.0000      -0.924213       -25.1491 
  87   2.0000      -0.923296       -25.1242 
  88   2.0000      -0.918125       -24.9835 
  89   2.0000      -0.916915       -24.9505 
  90   2.0000      -0.910311       -24.7708 
  91   2.0000      -0.898551       -24.4508 
  92   2.0000      -0.886347       -24.1187 
  93   2.0000      -0.880396       -23.9568 
  94   2.0000      -0.874560       -23.7980 
  95   2.0000      -0.865642       -23.5553 
  96   2.0000      -0.859920       -23.3996 
  97   2.0000      -0.857005       -23.3203 
  98   2.0000      -0.850400       -23.1406 
  99   2.0000      -0.845811       -23.0157 
 100   2.0000      -0.834572       -22.7099 
 101   2.0000      -0.828139       -22.5348 
 102   2.0000      -0.818632       -22.2761 
 103   2.0000      -0.812242       -22.1022 
 104   2.0000      -0.802402       -21.8345 
 105   2.0000      -0.796207       -21.6659 
 106   2.0000      -0.790768       -21.5179 
 107   2.0000      -0.789255       -21.4767 
 108   2.0000      -0.786251       -21.3950 
 109   2.0000      -0.780573       -21.2405 
 110   2.0000      -0.772677       -21.0256 
 111   2.0000      -0.767442       -20.8832 
 112   2.0000      -0.756847       -20.5949 
 113   2.0000      -0.745257       -20.2795 
 114   2.0000      -0.731428       -19.9032 
 115   2.0000      -0.728700       -19.8289 
 116   2.0000      -0.725960       -19.7544 
 117   2.0000      -0.715114       -19.4593 
 118   2.0000      -0.701397       -19.0860 
 119   2.0000      -0.690168       -18.7804 
 120   2.0000      -0.687933       -18.7196 
 121   2.0000      -0.682727       -18.5779 
 122   2.0000      -0.678262       -18.4565 
 123   2.0000      -0.677138       -18.4259 
 124   2.0000      -0.669213       -18.2102 
 125   2.0000      -0.666029       -18.1236 
 126   2.0000      -0.661240       -17.9933 
 127   2.0000      -0.661040       -17.9878 
 128   2.0000      -0.652254       -17.7487 
 129   2.0000      -0.641688       -17.4612 
 130   2.0000      -0.634458       -17.2645 
 131   2.0000      -0.629701       -17.1350 
 132   2.0000      -0.626986       -17.0611 
 133   2.0000      -0.623404       -16.9637 
 134   2.0000      -0.618552       -16.8317 
 135   2.0000      -0.614276       -16.7153 
 136   2.0000      -0.612760       -16.6741 
 137   2.0000      -0.600051       -16.3282 
 138   2.0000      -0.593881       -16.1603 
 139   2.0000      -0.591709       -16.1012 
 140   2.0000      -0.591234       -16.0883 
 141   2.0000      -0.587846       -15.9961 
 142   2.0000      -0.585654       -15.9364 
 143   2.0000      -0.580871       -15.8063 
 144   2.0000      -0.579067       -15.7572 
 145   2.0000      -0.577675       -15.7193 
 146   2.0000      -0.575226       -15.6527 
 147   2.0000      -0.571187       -15.5428 
 148   2.0000      -0.566757       -15.4222 
 149   2.0000      -0.562998       -15.3199 
 150   2.0000      -0.559796       -15.2328 
 151   2.0000      -0.556746       -15.1498 
 152   2.0000      -0.554894       -15.0994 
 153   2.0000      -0.552159       -15.0250 
 154   2.0000      -0.549105       -14.9419 
 155   2.0000      -0.547505       -14.8984 
 156   2.0000      -0.545948       -14.8560 
 157   2.0000      -0.540242       -14.7007 
 158   2.0000      -0.539001       -14.6670 
 159   2.0000      -0.538151       -14.6438 
 160   2.0000      -0.534986       -14.5577 
 161   2.0000      -0.533135       -14.5073 
 162   2.0000      -0.532286       -14.4842 
 163   2.0000      -0.530607       -14.4385 
 164   2.0000      -0.528581       -14.3834 
 165   2.0000      -0.526711       -14.3325 
 166   2.0000      -0.523661       -14.2495 
 167   2.0000      -0.520619       -14.1668 
 168   2.0000      -0.519312       -14.1312 
 169   2.0000      -0.514606       -14.0031 
 170   2.0000      -0.513392       -13.9701 
 171   2.0000      -0.512659       -13.9502 
 172   2.0000      -0.512119       -13.9355 
 173   2.0000      -0.509757       -13.8712 
 174   2.0000      -0.507749       -13.8166 
 175   2.0000      -0.505246       -13.7485 
 176   2.0000      -0.502910       -13.6849 
 177   2.0000      -0.497524       -13.5383 
 178   2.0000      -0.495707       -13.4889 
 179   2.0000      -0.493865       -13.4388 
 180   2.0000      -0.492872       -13.4117 
 181   2.0000      -0.490325       -13.3424 
 182   2.0000      -0.489065       -13.3081 
 183   2.0000      -0.488359       -13.2889 
 184   2.0000      -0.484487       -13.1836 
 185   2.0000      -0.482455       -13.1283 
 186   2.0000      -0.481417       -13.1000 
 187   2.0000      -0.479529       -13.0487 
 188   2.0000      -0.477013       -12.9802 
 189   2.0000      -0.475655       -12.9432 
 190   2.0000      -0.473316       -12.8796 
 191   2.0000      -0.471926       -12.8418 
 192   2.0000      -0.471749       -12.8369 
 193   2.0000      -0.469358       -12.7719 
 194   2.0000      -0.468875       -12.7587 
 195   2.0000      -0.468037       -12.7359 
 196   2.0000      -0.466864       -12.7040 
 197   2.0000      -0.463176       -12.6037 
 198   2.0000      -0.461703       -12.5636 
 199   2.0000      -0.459811       -12.5121 
 200   2.0000      -0.458524       -12.4771 
 201   2.0000      -0.456355       -12.4181 
 202   2.0000      -0.453768       -12.3477 
 203   2.0000      -0.452008       -12.2998 
 204   2.0000      -0.450639       -12.2625 
 205   2.0000      -0.448334       -12.1998 
 206   2.0000      -0.447019       -12.1640 
 207   2.0000      -0.443918       -12.0796 
 208   2.0000      -0.442634       -12.0447 
 209   2.0000      -0.439409       -11.9569 
 210   2.0000      -0.435961       -11.8631 
 211   2.0000      -0.433784       -11.8039 
 212   2.0000      -0.432975       -11.7819 
 213   2.0000      -0.432109       -11.7583 
 214   2.0000      -0.429751       -11.6941 
 215   2.0000      -0.425884       -11.5889 
 216   2.0000      -0.424158       -11.5419 
 217   2.0000      -0.419982       -11.4283 
 218   2.0000      -0.419772       -11.4226 
 219   2.0000      -0.412723       -11.2308 
 220   2.0000      -0.411950       -11.2097 
 221   2.0000      -0.410847       -11.1797 
 222   2.0000      -0.410107       -11.1596 
 223   2.0000      -0.408535       -11.1168 
 224   2.0000      -0.405272       -11.0280 
 225   2.0000      -0.403457       -10.9786 
 226   2.0000      -0.402534       -10.9535 
 227   2.0000      -0.401914       -10.9366 
 228   2.0000      -0.401002       -10.9118 
 229   2.0000      -0.399121       -10.8606 
 230   2.0000      -0.396651       -10.7934 
 231   2.0000      -0.393574       -10.7097 
 232   2.0000      -0.391092       -10.6421 
 233   2.0000      -0.389334       -10.5943 
 234   2.0000      -0.382485       -10.4079 
 235   2.0000      -0.374218       -10.1830 
 236   2.0000      -0.371121       -10.0987 
 237   2.0000      -0.366356        -9.9690 
 238   2.0000      -0.353900        -9.6301 
 239   2.0000      -0.352959        -9.6045 
 240   2.0000      -0.348126        -9.4730 
 241   2.0000      -0.340367        -9.2619 
 242   2.0000      -0.334747        -9.1089 
 243   2.0000      -0.333670        -9.0796 
 244   2.0000      -0.267908        -7.2901 
 245   2.0000      -0.231929        -6.3111 
 246   0.0000      -0.068535        -1.8649 
 247   0.0000       0.008783         0.2390 
 248   0.0000       0.028273         0.7693 
 249   0.0000       0.046578         1.2674 
 250   0.0000       0.068470         1.8632 
 251   0.0000       0.077366         2.1052 
 252   0.0000       0.079284         2.1574 
 253   0.0000       0.087988         2.3943 
 254   0.0000       0.090213         2.4548 
 255   0.0000       0.099750         2.7143 
 256   0.0000       0.104342         2.8393 
*Only the first 10 virtual orbitals were printed.

                    ********************************
                    * MULLIKEN POPULATION ANALYSIS *
                    ********************************

-----------------------
MULLIKEN ATOMIC CHARGES
-----------------------
   0 Mg:    0.846417
   1 C :   -0.249033
   2 C :   -0.503131
   3 C :   -0.480152
   4 C :   -0.433266
   5 N :   -0.400142
   6 C :    0.113486
   7 C :    0.152868
   8 C :    0.010029
   9 C :    0.150378
  10 C :   -0.446504
  11 C :   -0.354753
  12 C :   -0.223123
  13 C :    0.366411
  14 O :   -0.427089
  15 O :   -0.277231
  16 N :   -0.413416
  17 C :    0.327423
  18 C :   -0.019820
  19 C :   -0.113697
  20 C :    0.250142
  21 C :   -0.376750
  22 C :    0.299898
  23 O :   -0.426832
  24 C :   -0.378441
  25 N :   -0.360867
  26 C :    0.218941
  27 C :   -0.023776
  28 C :    0.116237
  29 C :    0.104653
  30 C :   -0.443002
  31 C :   -0.241837
  32 C :   -0.410325
  33 N :   -0.425745
  34 C :    0.249867
  35 C :   -0.079310
  36 C :   -0.107235
  37 C :    0.244480
  38 C :   -0.407108
  39 C :    0.162777
  40 O :   -0.381731
  41 C :    0.064450
  42 C :    0.322924
  43 O :   -0.407302
  44 O :   -0.268451
  45 C :   -0.234574
  46 C :   -0.068762
  47 C :   -0.258937
  48 C :    0.027900
  49 C :   -0.390886
  50 C :   -0.181197
  51 C :   -0.284663
  52 C :   -0.227081
  53 C :    0.047100
  54 C :   -0.444877
  55 C :   -0.226134
  56 C :   -0.250933
  57 C :   -0.225536
  58 C :    0.049961
  59 C :   -0.444992
  60 C :   -0.224957
  61 C :   -0.252380
  62 C :   -0.225802
  63 C :    0.020097
  64 C :   -0.418884
  65 C :   -0.387133
  66 H :    0.150214
  67 H :    0.178370
  68 H :    0.174267
  69 H :    0.131194
  70 H :    0.132473
  71 H :    0.137294
  72 H :    0.142535
  73 H :    0.141037
  74 H :    0.142920
  75 H :    0.146693
  76 H :    0.158689
  77 H :    0.149987
  78 H :    0.157018
  79 H :    0.165022
  80 H :    0.151930
  81 H :    0.152217
  82 H :    0.151615
  83 H :    0.153667
  84 H :    0.129163
  85 H :    0.113293
  86 H :    0.139227
  87 H :    0.137428
  88 H :    0.138144
  89 H :    0.118404
  90 H :    0.121278
  91 H :    0.138480
  92 H :    0.129150
  93 H :    0.129465
  94 H :    0.148929
  95 H :    0.153684
  96 H :    0.149903
  97 H :    0.152921
  98 H :    0.156945
  99 H :    0.147550
 100 H :    0.150305
 101 H :    0.146653
 102 H :    0.166418
 103 H :    0.147982
 104 H :    0.140752
 105 H :    0.135108
 106 H :    0.150918
 107 H :    0.124354
 108 H :    0.124469
 109 H :    0.124174
 110 H :    0.114504
 111 H :    0.109613
 112 H :    0.107881
 113 H :    0.075216
 114 H :    0.134990
 115 H :    0.118327
 116 H :    0.133559
 117 H :    0.106831
 118 H :    0.105823
 119 H :    0.111058
 120 H :    0.102171
 121 H :    0.106257
 122 H :    0.105241
 123 H :    0.073330
 124 H :    0.134578
 125 H :    0.117506
 126 H :    0.133946
 127 H :    0.106108
 128 H :    0.105178
 129 H :    0.114461
 130 H :    0.101033
 131 H :    0.105266
 132 H :    0.105075
 133 H :    0.073995
 134 H :    0.128833
 135 H :    0.116891
 136 H :    0.131809
 137 H :    0.128311
 138 H :    0.125134
 139 H :    0.116188
Sum of atomic charges:   -0.0000000

--------------------------------
MULLIKEN REDUCED ORBITAL CHARGES
--------------------------------
  0 Mgs       :     4.503086  s :     4.503086
      pz      :     2.078495  p :     6.408939
      px      :     2.179289
      py      :     2.151155
      dz2     :     0.027296  d :     0.241558
      dxz     :     0.038244
      dyz     :     0.019036
      dx2y2   :     0.057078
      dxy     :     0.099904

  1 C s       :     3.504910  s :     3.504910
      pz      :     0.994181  p :     2.616836
      px      :     0.821899
      py      :     0.800757
      dz2     :     0.011781  d :     0.117050
      dxz     :     0.016548
      dyz     :     0.021794
      dx2y2   :     0.044518
      dxy     :     0.022409
      f0      :     0.001121  f :     0.010237
      f+1     :     0.001009
      f-1     :     0.001434
      f+2     :     0.001351
      f-2     :     0.000913
      f+3     :     0.001920
      f-3     :     0.002490

  2 C s       :     3.295817  s :     3.295817
      pz      :     1.054506  p :     3.132859
      px      :     1.063260
      py      :     1.015093
      dz2     :     0.004477  d :     0.067150
      dxz     :     0.022378
      dyz     :     0.006515
      dx2y2   :     0.017436
      dxy     :     0.016343
      f0      :     0.001194  f :     0.007305
      f+1     :     0.000746
      f-1     :     0.000645
      f+2     :     0.001030
      f-2     :     0.000715
      f+3     :     0.001261
      f-3     :     0.001715

  3 C s       :     3.297912  s :     3.297912
      pz      :     1.061024  p :     3.107823
      px      :     1.074872
      py      :     0.971927
      dz2     :     0.008661  d :     0.067177
      dxz     :     0.006217
      dyz     :     0.015857
      dx2y2   :     0.020005
      dxy     :     0.016436
      f0      :     0.000854  f :     0.007239
      f+1     :     0.000656
      f-1     :     0.001440
      f+2     :     0.000700
      f-2     :     0.000818
      f+3     :     0.001601
      f-3     :     0.001168

  4 C s       :     3.292846  s :     3.292846
      pz      :     1.047702  p :     3.059212
      px      :     0.980937
      py      :     1.030573
      dz2     :     0.003780  d :     0.073887
      dxz     :     0.024130
      dyz     :     0.007391
      dx2y2   :     0.020920
      dxy     :     0.017665
      f0      :     0.001256  f :     0.007321
      f+1     :     0.000715
      f-1     :     0.000664
      f+2     :     0.000992
      f-2     :     0.000752
      f+3     :     0.001202
      f-3     :     0.001741

  5 N s       :     3.658657  s :     3.658657
      pz      :     1.266724  p :     3.673678
      px      :     1.100853
      py      :     1.306101
      dz2     :     0.006977  d :     0.064173
      dxz     :     0.014465
      dyz     :     0.007388
      dx2y2   :     0.017409
      dxy     :     0.017933
      f0      :     0.000463  f :     0.003635
      f+1     :     0.000377
      f-1     :     0.000479
      f+2     :     0.000535
      f-2     :     0.000319
      f+3     :     0.000598
      f-3     :     0.000862

  6 C s       :     3.235336  s :     3.235336
      pz      :     0.923001  p :     2.486678
      px      :     0.742628
      py      :     0.821050
      dz2     :     0.009173  d :     0.150550
      dxz     :     0.035707
      dyz     :     0.020305
      dx2y2   :     0.044949
      dxy     :     0.040416
      f0      :     0.001628  f :     0.013949
      f+1     :     0.001244
      f-1     :     0.001313
      f+2     :     0.002222
      f-2     :     0.000992
      f+3     :     0.002790
      f-3     :     0.003760

  7 C s       :     2.994006  s :     2.994006
      pz      :     0.927427  p :     2.723462
      px      :     0.912634
      py      :     0.883401
      dz2     :     0.020745  d :     0.122037
      dxz     :     0.028186
      dyz     :     0.020462
      dx2y2   :     0.032474
      dxy     :     0.020170
      f0      :     0.000771  f :     0.007628
      f+1     :     0.001091
      f-1     :     0.001026
      f+2     :     0.001574
      f-2     :     0.000871
      f+3     :     0.001334
      f-3     :     0.000960

  8 C s       :     3.070043  s :     3.070043
      pz      :     0.976093  p :     2.784223
      px      :     0.906423
      py      :     0.901707
      dz2     :     0.023504  d :     0.127884
      dxz     :     0.034570
      dyz     :     0.026978
      dx2y2   :     0.020746
      dxy     :     0.022086
      f0      :     0.001287  f :     0.007821
      f+1     :     0.001736
      f-1     :     0.001297
      f+2     :     0.000569
      f-2     :     0.000705
      f+3     :     0.001194
      f-3     :     0.001033

  9 C s       :     3.149632  s :     3.149632
      pz      :     0.839566  p :     2.535785
      px      :     0.891184
      py      :     0.805035
      dz2     :     0.013776  d :     0.150113
      dxz     :     0.037240
      dyz     :     0.018358
      dx2y2   :     0.038060
      dxy     :     0.042680
      f0      :     0.001348  f :     0.014092
      f+1     :     0.001241
      f-1     :     0.001816
      f+2     :     0.001892
      f-2     :     0.001545
      f+3     :     0.001924
      f-3     :     0.004326

 10 C s       :     3.319294  s :     3.319294
      pz      :     0.905818  p :     3.070866
      px      :     1.084749
      py      :     1.080300
      dz2     :     0.008069  d :     0.053230
      dxz     :     0.016584
      dyz     :     0.017950
      dx2y2   :     0.004834
      dxy     :     0.005793
      f0      :     0.001051  f :     0.003114
      f+1     :     0.000795
      f-1     :     0.000865
      f+2     :    -0.000121
      f-2     :    -0.000106
      f+3     :     0.000354
      f-3     :     0.000276

 11 C s       :     3.266727  s :     3.266727
      pz      :     0.927094  p :     2.992245
      px      :     1.014859
      py      :     1.050292
      dz2     :     0.023498  d :     0.090522
      dxz     :     0.020898
      dyz     :     0.017610
      dx2y2   :     0.018785
      dxy     :     0.009730
      f0      :     0.000962  f :     0.005259
      f+1     :     0.000847
      f-1     :     0.000621
      f+2     :     0.001213
      f-2     :     0.001038
      f+3     :     0.000139
      f-3     :     0.000438

 12 C s       :     3.133513  s :     3.133513
      pz      :     0.944629  p :     3.003723
      px      :     1.006781
      py      :     1.052313
      dz2     :     0.021753  d :     0.080812
      dxz     :     0.012008
      dyz     :     0.021897
      dx2y2   :     0.015121
      dxy     :     0.010033
      f0      :     0.000787  f :     0.005075
      f+1     :     0.000999
      f-1     :     0.000606
      f+2     :     0.001043
      f-2     :     0.001022
      f+3     :     0.000134
      f-3     :     0.000484

 13 C s       :     3.068486  s :     3.068486
      pz      :     0.818743  p :     2.280472
      px      :     0.718660
      py      :     0.743070
      dz2     :     0.040961  d :     0.259674
      dxz     :     0.085607
      dyz     :     0.016244
      dx2y2   :     0.042141
      dxy     :     0.074722
      f0      :     0.002945  f :     0.024956
      f+1     :     0.005079
      f-1     :     0.001315
      f+2     :     0.004880
      f-2     :     0.002828
      f+3     :     0.003515
      f-3     :     0.004394

 14 O s       :     3.827341  s :     3.827341
      pz      :     1.675416  p :     4.567516
      px      :     1.365003
      py      :     1.527097
      dz2     :     0.003331  d :     0.030334
      dxz     :     0.008840
      dyz     :     0.000554
      dx2y2   :     0.007889
      dxy     :     0.009720
      f0      :     0.000227  f :     0.001898
      f+1     :     0.000322
      f-1     :     0.000041
      f+2     :     0.000340
      f-2     :     0.000074
      f+3     :     0.000360
      f-3     :     0.000534

 15 O s       :     3.763219  s :     3.763219
      pz      :     1.351135  p :     4.473067
      px      :     1.538462
      py      :     1.583471
      dz2     :     0.006752  d :     0.038906
      dxz     :     0.012866
      dyz     :     0.005925
      dx2y2   :     0.006170
      dxy     :     0.007192
      f0      :     0.000261  f :     0.002039
      f+1     :     0.000324
      f-1     :     0.000408
      f+2     :     0.000354
      f-2     :     0.000378
      f+3     :     0.000164
      f-3     :     0.000151

 16 N s       :     3.645343  s :     3.645343
      pz      :     1.358327  p :     3.704101
      px      :     1.217812
      py      :     1.127963
      dz2     :     0.006995  d :     0.060326
      dxz     :     0.008388
      dyz     :     0.010789
      dx2y2   :     0.017486
      dxy     :     0.016668
      f0      :     0.000504  f :     0.003645
      f+1     :     0.000306
      f-1     :     0.000619
      f+2     :     0.000440
      f-2     :     0.000431
      f+3     :     0.000819
      f-3     :     0.000525

 17 C s       :     3.076743  s :     3.076743
      pz      :     0.885198  p :     2.417456
      px      :     0.831799
      py      :     0.700459
      dz2     :     0.015502  d :     0.163853
      dxz     :     0.029324
      dyz     :     0.027673
      dx2y2   :     0.043121
      dxy     :     0.048234
      f0      :     0.001452  f :     0.014524
      f+1     :     0.000796
      f-1     :     0.002251
      f+2     :     0.002111
      f-2     :     0.001471
      f+3     :     0.003544
      f-3     :     0.002898

 18 C s       :     3.217784  s :     3.217784
      pz      :     0.890406  p :     2.635696
      px      :     0.869604
      py      :     0.875686
      dz2     :     0.013456  d :     0.156209
      dxz     :     0.026225
      dyz     :     0.023963
      dx2y2   :     0.046769
      dxy     :     0.045796
      f0      :     0.001119  f :     0.010131
      f+1     :     0.000747
      f-1     :     0.001503
      f+2     :     0.001405
      f-2     :     0.001013
      f+3     :     0.001325
      f-3     :     0.003019

 19 C s       :     3.236328  s :     3.236328
      pz      :     1.038413  p :     2.735667
      px      :     0.775808
      py      :     0.921446
      dz2     :     0.012464  d :     0.131592
      dxz     :     0.016295
      dyz     :     0.019937
      dx2y2   :     0.047764
      dxy     :     0.035131
      f0      :     0.001217  f :     0.010110
      f+1     :     0.001124
      f-1     :     0.001176
      f+2     :     0.000926
      f-2     :     0.001187
      f+3     :     0.001898
      f-3     :     0.002581

 20 C s       :     3.112859  s :     3.112859
      pz      :     0.887257  p :     2.453712
      px      :     0.743175
      py      :     0.823280
      dz2     :     0.012682  d :     0.168693
      dxz     :     0.036747
      dyz     :     0.025726
      dx2y2   :     0.047895
      dxy     :     0.045643
      f0      :     0.001516  f :     0.014594
      f+1     :     0.001233
      f-1     :     0.001714
      f+2     :     0.001267
      f-2     :     0.002236
      f+3     :     0.004587
      f-3     :     0.002040

 21 C s       :     3.322252  s :     3.322252
      pz      :     1.055496  p :     3.004624
      px      :     1.054654
      py      :     0.894474
      dz2     :     0.008575  d :     0.046997
      dxz     :     0.008199
      dyz     :     0.008530
      dx2y2   :     0.008972
      dxy     :     0.012721
      f0      :     0.000317  f :     0.002878
      f+1     :     0.000516
      f-1     :     0.000277
      f+2     :     0.000166
      f-2     :     0.000399
      f+3     :     0.000444
      f-3     :     0.000758

 22 C s       :     3.112635  s :     3.112635
      pz      :     0.719438  p :     2.363491
      px      :     0.887112
      py      :     0.756942
      dz2     :     0.034954  d :     0.206205
      dxz     :     0.042774
      dyz     :     0.024286
      dx2y2   :     0.046824
      dxy     :     0.057367
      f0      :     0.001275  f :     0.017771
      f+1     :     0.001202
      f-1     :     0.003359
      f+2     :     0.003233
      f-2     :     0.002363
      f+3     :     0.002641
      f-3     :     0.003698

 23 O s       :     3.844097  s :     3.844097
      pz      :     1.410694  p :     4.550591
      px      :     1.767647
      py      :     1.372250
      dz2     :     0.006322  d :     0.030348
      dxz     :     0.003884
      dyz     :     0.007110
      dx2y2   :     0.006822
      dxy     :     0.006210
      f0      :     0.000105  f :     0.001795
      f+1     :     0.000141
      f-1     :     0.000375
      f+2     :     0.000278
      f-2     :     0.000306
      f+3     :     0.000265
      f-3     :     0.000326

 24 C s       :     3.252944  s :     3.252944
      pz      :     1.022287  p :     3.081682
      px      :     1.021275
      py      :     1.038120
      dz2     :     0.009524  d :     0.040959
      dxz     :     0.006339
      dyz     :     0.007038
      dx2y2   :     0.010126
      dxy     :     0.007933
      f0      :     0.000368  f :     0.002856
      f+1     :     0.000458
      f-1     :     0.000293
      f+2     :     0.000436
      f-2     :     0.000379
      f+3     :     0.000205
      f-3     :     0.000717

 25 N s       :     3.640079  s :     3.640079
      pz      :     1.267603  p :     3.653704
      px      :     1.107248
      py      :     1.278853
      dz2     :     0.006385  d :     0.063468
      dxz     :     0.013907
      dyz     :     0.007232
      dx2y2   :     0.017932
      dxy     :     0.018011
      f0      :     0.000485  f :     0.003616
      f+1     :     0.000354
      f-1     :     0.000457
      f+2     :     0.000522
      f-2     :     0.000309
      f+3     :     0.000587
      f-3     :     0.000901

 26 C s       :     3.133546  s :     3.133546
      pz      :     0.880333  p :     2.481924
      px      :     0.729919
      py      :     0.871672
      dz2     :     0.009579  d :     0.151506
      dxz     :     0.038434
      dyz     :     0.018439
      dx2y2   :     0.042569
      dxy     :     0.042485
      f0      :     0.001667  f :     0.014083
      f+1     :     0.001210
      f-1     :     0.001153
      f+2     :     0.002231
      f-2     :     0.000996
      f+3     :     0.002867
      f-3     :     0.003961

 27 C s       :     3.091555  s :     3.091555
      pz      :     0.969654  p :     2.796628
      px      :     0.933290
      py      :     0.893683
      dz2     :     0.023047  d :     0.127773
      dxz     :     0.032532
      dyz     :     0.020472
      dx2y2   :     0.030753
      dxy     :     0.020969
      f0      :     0.000878  f :     0.007821
      f+1     :     0.001147
      f-1     :     0.000958
      f+2     :     0.001520
      f-2     :     0.000933
      f+3     :     0.001406
      f-3     :     0.000980

 28 C s       :     2.997411  s :     2.997411
      pz      :     0.958474  p :     2.753660
      px      :     0.904718
      py      :     0.890469
      dz2     :     0.021886  d :     0.124994
      dxz     :     0.034706
      dyz     :     0.025343
      dx2y2   :     0.020526
      dxy     :     0.022532
      f0      :     0.001337  f :     0.007698
      f+1     :     0.001600
      f-1     :     0.001176
      f+2     :     0.000583
      f-2     :     0.000748
      f+3     :     0.001216
      f-3     :     0.001039

 29 C s       :     3.179450  s :     3.179450
      pz      :     0.886812  p :     2.553435
      px      :     0.846186
      py      :     0.820437
      dz2     :     0.012636  d :     0.148457
      dxz     :     0.037217
      dyz     :     0.018835
      dx2y2   :     0.037744
      dxy     :     0.042025
      f0      :     0.001433  f :     0.014005
      f+1     :     0.001167
      f-1     :     0.001751
      f+2     :     0.001823
      f-2     :     0.001565
      f+3     :     0.001949
      f-3     :     0.004316

 30 C s       :     3.317917  s :     3.317917
      pz      :     0.970556  p :     3.068384
      px      :     1.068135
      py      :     1.029693
      dz2     :     0.012361  d :     0.053581
      dxz     :     0.017570
      dyz     :     0.006854
      dx2y2   :     0.011089
      dxy     :     0.005707
      f0      :     0.000480  f :     0.003119
      f+1     :     0.000436
      f-1     :     0.000346
      f+2     :     0.000970
      f-2     :     0.000528
      f+3     :     0.000061
      f-3     :     0.000297

 31 C s       :     3.223556  s :     3.223556
      pz      :     0.894122  p :     2.916092
      px      :     1.044727
      py      :     0.977243
      dz2     :     0.027067  d :     0.096935
      dxz     :     0.014984
      dyz     :     0.024972
      dx2y2   :     0.008246
      dxy     :     0.021667
      f0      :     0.001013  f :     0.005254
      f+1     :     0.000781
      f-1     :     0.001658
      f+2     :     0.000221
      f-2     :     0.000350
      f+3     :     0.000561
      f-3     :     0.000671

 32 C s       :     3.271460  s :     3.271460
      pz      :     1.062705  p :     3.082229
      px      :     1.054517
      py      :     0.965008
      dz2     :     0.019931  d :     0.053583
      dxz     :     0.001574
      dyz     :     0.006479
      dx2y2   :     0.006195
      dxy     :     0.019404
      f0      :     0.000621  f :     0.003053
      f+1     :    -0.000025
      f-1     :     0.000852
      f+2     :     0.000145
      f-2     :     0.000301
      f+3     :     0.000512
      f-3     :     0.000646

 33 N s       :     3.667201  s :     3.667201
      pz      :     1.352906  p :     3.694156
      px      :     1.226316
      py      :     1.114934
      dz2     :     0.006958  d :     0.060724
      dxz     :     0.008295
      dyz     :     0.011382
      dx2y2   :     0.017316
      dxy     :     0.016774
      f0      :     0.000519  f :     0.003663
      f+1     :     0.000308
      f-1     :     0.000585
      f+2     :     0.000404
      f-2     :     0.000479
      f+3     :     0.000849
      f-3     :     0.000519

 34 C s       :     3.111392  s :     3.111392
      pz      :     0.919069  p :     2.465925
      px      :     0.808957
      py      :     0.737899
      dz2     :     0.013426  d :     0.158491
      dxz     :     0.029943
      dyz     :     0.025926
      dx2y2   :     0.041044
      dxy     :     0.048153
      f0      :     0.001530  f :     0.014324
      f+1     :     0.000858
      f-1     :     0.002065
      f+2     :     0.002060
      f-2     :     0.001434
      f+3     :     0.003046
      f-3     :     0.003329

 35 C s       :     3.314839  s :     3.314839
      pz      :     0.935636  p :     2.609899
      px      :     0.838502
      py      :     0.835761
      dz2     :     0.011809  d :     0.144590
      dxz     :     0.022244
      dyz     :     0.026118
      dx2y2   :     0.049510
      dxy     :     0.034908
      f0      :     0.001169  f :     0.009983
      f+1     :     0.000690
      f-1     :     0.001440
      f+2     :     0.001515
      f-2     :     0.000913
      f+3     :     0.001300
      f-3     :     0.002957

 36 C s       :     3.228885  s :     3.228885
      pz      :     1.048980  p :     2.731594
      px      :     0.813717
      py      :     0.868897
      dz2     :     0.013396  d :     0.135812
      dxz     :     0.015655
      dyz     :     0.022603
      dx2y2   :     0.034179
      dxy     :     0.049978
      f0      :     0.001282  f :     0.010944
      f+1     :     0.001002
      f-1     :     0.001449
      f+2     :     0.000784
      f-2     :     0.001558
      f+3     :     0.002698
      f-3     :     0.002169

 37 C s       :     3.108843  s :     3.108843
      pz      :     0.888811  p :     2.458913
      px      :     0.738070
      py      :     0.832032
      dz2     :     0.010341  d :     0.171808
      dxz     :     0.043109
      dyz     :     0.024027
      dx2y2   :     0.048822
      dxy     :     0.045510
      f0      :     0.001784  f :     0.015956
      f+1     :     0.001327
      f-1     :     0.001655
      f+2     :     0.001151
      f-2     :     0.002529
      f+3     :     0.005180
      f-3     :     0.002331

 38 C s       :     3.356416  s :     3.356416
      pz      :     1.041310  p :     2.998953
      px      :     1.024444
      py      :     0.933199
      dz2     :     0.007981  d :     0.048724
      dxz     :     0.004277
      dyz     :     0.014970
      dx2y2   :     0.016028
      dxy     :     0.005468
      f0      :     0.000261  f :     0.003015
      f+1     :     0.000279
      f-1     :     0.000623
      f+2     :     0.000325
      f-2     :     0.000290
      f+3     :     0.000470
      f-3     :     0.000766

 39 C s       :     3.141582  s :     3.141582
      pz      :     0.737375  p :     2.481219
      px      :     0.826562
      py      :     0.917282
      dz2     :     0.007880  d :     0.196207
      dxz     :     0.056791
      dyz     :     0.015868
      dx2y2   :     0.051081
      dxy     :     0.064587
      f0      :     0.002050  f :     0.018215
      f+1     :     0.001603
      f-1     :     0.000913
      f+2     :     0.002623
      f-2     :     0.001438
      f+3     :     0.005019
      f-3     :     0.004570

 40 O s       :     3.819573  s :     3.819573
      pz      :     1.418874  p :     4.530031
      px      :     1.391731
      py      :     1.719426
      dz2     :     0.002743  d :     0.030347
      dxz     :     0.009869
      dyz     :     0.000825
      dx2y2   :     0.008161
      dxy     :     0.008749
      f0      :     0.000171  f :     0.001781
      f+1     :     0.000173
      f-1     :     0.000024
      f+2     :     0.000341
      f-2     :     0.000120
      f+3     :     0.000470
      f-3     :     0.000482

 41 C s       :     2.945298  s :     2.945298
      pz      :     0.923957  p :     2.876659
      px      :     0.907039
      py      :     1.045662
      dz2     :     0.015194  d :     0.106956
      dxz     :     0.029359
      dyz     :     0.017491
      dx2y2   :     0.019898
      dxy     :     0.025015
      f0      :     0.001155  f :     0.006638
      f+1     :     0.000946
      f-1     :     0.000803
      f+2     :     0.001094
      f-2     :     0.000442
      f+3     :     0.000886
      f-3     :     0.001311

 42 C s       :     3.092212  s :     3.092212
      pz      :     0.818151  p :     2.297329
      px      :     0.750450
      py      :     0.728729
      dz2     :     0.060378  d :     0.262301
      dxz     :     0.070239
      dyz     :     0.055041
      dx2y2   :     0.041647
      dxy     :     0.034996
      f0      :     0.006931  f :     0.025233
      f+1     :     0.003796
      f-1     :     0.003683
      f+2     :     0.002821
      f-2     :     0.003283
      f+3     :     0.003258
      f-3     :     0.001461

 43 O s       :     3.821906  s :     3.821906
      pz      :     1.418430  p :     4.553129
      px      :     1.651810
      py      :     1.482889
      dz2     :     0.009463  d :     0.030367
      dxz     :     0.008371
      dyz     :     0.008829
      dx2y2   :     0.001939
      dxy     :     0.001765
      f0      :     0.000502  f :     0.001900
      f+1     :     0.000461
      f-1     :     0.000404
      f+2     :     0.000267
      f-2     :     0.000241
      f+3     :     0.000010
      f-3     :     0.000015

 44 O s       :     3.766030  s :     3.766030
      pz      :     1.513429  p :     4.460042
      px      :     1.320371
      py      :     1.626243
      dz2     :     0.010069  d :     0.040255
      dxz     :     0.010541
      dyz     :     0.005085
      dx2y2   :     0.006799
      dxy     :     0.007761
      f0      :     0.000197  f :     0.002124
      f+1     :     0.000373
      f-1     :     0.000143
      f+2     :     0.000263
      f-2     :     0.000308
      f+3     :     0.000398
      f-3     :     0.000442

 45 C s       :     3.265616  s :     3.265616
      pz      :     0.808822  p :     2.878142
      px      :     0.980592
      py      :     1.088728
      dz2     :     0.017709  d :     0.083643
      dxz     :     0.018115
      dyz     :     0.026303
      dx2y2   :     0.009998
      dxy     :     0.011519
      f0      :     0.001283  f :     0.007173
      f+1     :     0.001253
      f-1     :     0.000664
      f+2     :     0.001546
      f-2     :     0.001773
      f+3     :     0.000251
      f-3     :     0.000402

 46 C s       :     3.206208  s :     3.206208
      pz      :     0.775016  p :     2.736415
      px      :     1.066565
      py      :     0.894834
      dz2     :     0.020126  d :     0.117111
      dxz     :     0.024139
      dyz     :     0.032652
      dx2y2   :     0.021169
      dxy     :     0.019026
      f0      :     0.001922  f :     0.009028
      f+1     :     0.000838
      f-1     :     0.001668
      f+2     :     0.001676
      f-2     :     0.001273
      f+3     :     0.000701
      f-3     :     0.000950

 47 C s       :     3.175829  s :     3.175829
      pz      :     1.045699  p :     2.984516
      px      :     0.979787
      py      :     0.959030
      dz2     :     0.006293  d :     0.091387
      dxz     :     0.006756
      dyz     :     0.017208
      dx2y2   :     0.036787
      dxy     :     0.024343
      f0      :     0.000851  f :     0.007204
      f+1     :     0.000664
      f-1     :     0.001311
      f+2     :     0.000682
      f-2     :     0.000700
      f+3     :     0.001138
      f-3     :     0.001858

 48 C s       :     3.161191  s :     3.161191
      pz      :     0.881596  p :     2.658491
      px      :     0.859171
      py      :     0.917724
      dz2     :     0.014134  d :     0.142814
      dxz     :     0.022228
      dyz     :     0.021108
      dx2y2   :     0.048240
      dxy     :     0.037104
      f0      :     0.001026  f :     0.009604
      f+1     :     0.000965
      f-1     :     0.001260
      f+2     :     0.001220
      f-2     :     0.000835
      f+3     :     0.001116
      f-3     :     0.003182

 49 C s       :     3.290283  s :     3.290283
      pz      :     1.075475  p :     3.048494
      px      :     0.894801
      py      :     1.078217
      dz2     :     0.007110  d :     0.049203
      dxz     :     0.013952
      dyz     :     0.003492
      dx2y2   :     0.005934
      dxy     :     0.018715
      f0      :     0.000733  f :     0.002907
      f+1     :     0.000238
      f-1     :     0.000081
      f+2     :     0.000428
      f-2     :    -0.000074
      f+3     :     0.000723
      f-3     :     0.000778

 50 C s       :     3.189103  s :     3.189103
      pz      :     0.929859  p :     2.898035
      px      :     1.031988
      py      :     0.936188
      dz2     :     0.015255  d :     0.088888
      dxz     :     0.019768
      dyz     :     0.026747
      dx2y2   :     0.014841
      dxy     :     0.012277
      f0      :     0.001216  f :     0.005170
      f+1     :     0.000876
      f-1     :     0.001096
      f+2     :     0.000249
      f-2     :     0.000268
      f+3     :     0.000781
      f-3     :     0.000685

 51 C s       :     3.226963  s :     3.226963
      pz      :     0.960842  p :     2.960543
      px      :     1.023868
      py      :     0.975833
      dz2     :     0.017262  d :     0.091838
      dxz     :     0.018899
      dyz     :     0.026628
      dx2y2   :     0.019175
      dxy     :     0.009874
      f0      :     0.001256  f :     0.005319
      f+1     :     0.000943
      f-1     :     0.001097
      f+2     :     0.000160
      f-2     :     0.000379
      f+3     :     0.000721
      f-3     :     0.000763

 52 C s       :     3.193209  s :     3.193209
      pz      :     0.954213  p :     2.939101
      px      :     1.017334
      py      :     0.967554
      dz2     :     0.014965  d :     0.089541
      dxz     :     0.019016
      dyz     :     0.025715
      dx2y2   :     0.018467
      dxy     :     0.011378
      f0      :     0.001219  f :     0.005230
      f+1     :     0.000841
      f-1     :     0.001086
      f+2     :     0.000186
      f-2     :     0.000414
      f+3     :     0.000723
      f-3     :     0.000760

 53 C s       :     3.068029  s :     3.068029
      pz      :     0.903203  p :     2.738607
      px      :     0.898256
      py      :     0.937148
      dz2     :     0.030142  d :     0.138628
      dxz     :     0.030800
      dyz     :     0.023915
      dx2y2   :     0.024577
      dxy     :     0.029194
      f0      :     0.001326  f :     0.007635
      f+1     :     0.001752
      f-1     :     0.000944
      f+2     :     0.000349
      f-2     :     0.000949
      f+3     :     0.001018
      f-3     :     0.001297

 54 C s       :     3.300548  s :     3.300548
      pz      :     1.055369  p :     3.090340
      px      :     0.968561
      py      :     1.066410
      dz2     :     0.015125  d :     0.051047
      dxz     :     0.008038
      dyz     :     0.002948
      dx2y2   :     0.004866
      dxy     :     0.020070
      f0      :     0.000589  f :     0.002943
      f+1     :     0.000682
      f-1     :     0.000047
      f+2     :     0.000159
      f-2     :     0.000293
      f+3     :     0.000701
      f-3     :     0.000471

 55 C s       :     3.196734  s :     3.196734
      pz      :     0.947483  p :     2.934048
      px      :     1.002900
      py      :     0.983664
      dz2     :     0.014789  d :     0.090110
      dxz     :     0.024511
      dyz     :     0.021843
      dx2y2   :     0.017198
      dxy     :     0.011770
      f0      :     0.001242  f :     0.005242
      f+1     :     0.000871
      f-1     :     0.000843
      f+2     :     0.000158
      f-2     :     0.000685
      f+3     :     0.000722
      f-3     :     0.000720

 56 C s       :     3.194315  s :     3.194315
      pz      :     0.965924  p :     2.960053
      px      :     1.002216
      py      :     0.991912
      dz2     :     0.014897  d :     0.091254
      dxz     :     0.024955
      dyz     :     0.021703
      dx2y2   :     0.018526
      dxy     :     0.011173
      f0      :     0.001317  f :     0.005311
      f+1     :     0.000903
      f-1     :     0.000762
      f+2     :     0.000053
      f-2     :     0.000784
      f+3     :     0.000765
      f-3     :     0.000728

 57 C s       :     3.196468  s :     3.196468
      pz      :     0.957378  p :     2.933743
      px      :     0.990067
      py      :     0.986298
      dz2     :     0.014145  d :     0.090084
      dxz     :     0.023840
      dyz     :     0.020398
      dx2y2   :     0.019372
      dxy     :     0.012328
      f0      :     0.001192  f :     0.005242
      f+1     :     0.000812
      f-1     :     0.000719
      f+2     :     0.000150
      f-2     :     0.000848
      f+3     :     0.000796
      f-3     :     0.000725

 58 C s       :     3.066507  s :     3.066507
      pz      :     0.897426  p :     2.737371
      px      :     0.900058
      py      :     0.939887
      dz2     :     0.032035  d :     0.138528
      dxz     :     0.032684
      dyz     :     0.022524
      dx2y2   :     0.025278
      dxy     :     0.026008
      f0      :     0.001487  f :     0.007634
      f+1     :     0.001464
      f-1     :     0.000753
      f+2     :     0.000590
      f-2     :     0.001377
      f+3     :     0.001151
      f-3     :     0.000813

 59 C s       :     3.300597  s :     3.300597
      pz      :     1.028716  p :     3.090306
      px      :     1.007697
      py      :     1.053894
      dz2     :     0.017417  d :     0.051145
      dxz     :     0.006934
      dyz     :     0.003834
      dx2y2   :     0.007394
      dxy     :     0.015566
      f0      :     0.000398  f :     0.002944
      f+1     :     0.000935
      f-1     :     0.000062
      f+2     :     0.000271
      f-2     :     0.000482
      f+3     :     0.000460
      f-3     :     0.000336

 60 C s       :     3.196254  s :     3.196254
      pz      :     0.957297  p :     2.933281
      px      :     0.973454
      py      :     1.002531
      dz2     :     0.016216  d :     0.090183
      dxz     :     0.024159
      dyz     :     0.017821
      dx2y2   :     0.019469
      dxy     :     0.012518
      f0      :     0.001045  f :     0.005239
      f+1     :     0.000871
      f-1     :     0.000487
      f+2     :     0.000283
      f-2     :     0.001082
      f+3     :     0.000861
      f-3     :     0.000609

 61 C s       :     3.198261  s :     3.198261
      pz      :     0.969969  p :     2.957403
      px      :     0.984172
      py      :     1.003262
      dz2     :     0.016053  d :     0.091402
      dxz     :     0.025296
      dyz     :     0.017426
      dx2y2   :     0.019557
      dxy     :     0.013071
      f0      :     0.001115  f :     0.005314
      f+1     :     0.000866
      f-1     :     0.000446
      f+2     :     0.000345
      f-2     :     0.001079
      f+3     :     0.000873
      f-3     :     0.000591

 62 C s       :     3.195693  s :     3.195693
      pz      :     0.971262  p :     2.934502
      px      :     0.957486
      py      :     1.005754
      dz2     :     0.015123  d :     0.090390
      dxz     :     0.024926
      dyz     :     0.016081
      dx2y2   :     0.020239
      dxy     :     0.014022
      f0      :     0.000898  f :     0.005218
      f+1     :     0.000890
      f-1     :     0.000428
      f+2     :     0.000356
      f-2     :     0.001107
      f+3     :     0.000929
      f-3     :     0.000609

 63 C s       :     3.079608  s :     3.079608
      pz      :     0.897092  p :     2.750909
      px      :     0.900667
      py      :     0.953150
      dz2     :     0.031574  d :     0.141678
      dxz     :     0.036981
      dyz     :     0.022890
      dx2y2   :     0.027577
      dxy     :     0.022657
      f0      :     0.001512  f :     0.007707
      f+1     :     0.001250
      f-1     :     0.000730
      f+2     :     0.001149
      f-2     :     0.001376
      f+3     :     0.001010
      f-3     :     0.000681

 64 C s       :     3.285127  s :     3.285127
      pz      :     1.000937  p :     3.078364
      px      :     1.040503
      py      :     1.036923
      dz2     :     0.015458  d :     0.052391
      dxz     :     0.012315
      dyz     :     0.004957
      dx2y2   :     0.010092
      dxy     :     0.009568
      f0      :     0.000451  f :     0.003003
      f+1     :     0.000743
      f-1     :     0.000219
      f+2     :     0.000632
      f-2     :     0.000504
      f+3     :     0.000166
      f-3     :     0.000287

 65 C s       :     3.279167  s :     3.279167
      pz      :     1.064928  p :     3.051434
      px      :     0.961889
      py      :     1.024617
      dz2     :     0.005259  d :     0.053478
      dxz     :     0.017827
      dyz     :     0.006425
      dx2y2   :     0.017922
      dxy     :     0.006045
      f0      :     0.000210  f :     0.003055
      f+1     :     0.000720
      f-1     :     0.000096
      f+2     :     0.000273
      f-2     :     0.000546
      f+3     :     0.000759
      f-3     :     0.000452

 66 H s       :     0.825510  s :     0.825510
      pz      :     0.006821  p :     0.024277
      px      :     0.004900
      py      :     0.012555

 67 H s       :     0.795618  s :     0.795618
      pz      :     0.005018  p :     0.026012
      px      :     0.016371
      py      :     0.004623

 68 H s       :     0.802836  s :     0.802836
      pz      :     0.006333  p :     0.022897
      px      :     0.004573
      py      :     0.011991

 69 H s       :     0.845680  s :     0.845680
      pz      :     0.009155  p :     0.023126
      px      :     0.009753
      py      :     0.004218

 70 H s       :     0.845128  s :     0.845128
      pz      :     0.005374  p :     0.022399
      px      :     0.004779
      py      :     0.012246

 71 H s       :     0.841232  s :     0.841232
      pz      :     0.005755  p :     0.021474
      px      :     0.011081
      py      :     0.004638

 72 H s       :     0.836139  s :     0.836139
      pz      :     0.005656  p :     0.021327
      px      :     0.004820
      py      :     0.010850

 73 H s       :     0.837741  s :     0.837741
      pz      :     0.005214  p :     0.021222
      px      :     0.007923
      py      :     0.008086

 74 H s       :     0.835496  s :     0.835496
      pz      :     0.004870  p :     0.021584
      px      :     0.004324
      py      :     0.012390

 75 H s       :     0.830663  s :     0.830663
      pz      :     0.005161  p :     0.022644
      px      :     0.012579
      py      :     0.004904

 76 H s       :     0.818578  s :     0.818578
      pz      :     0.004913  p :     0.022733
      px      :     0.004676
      py      :     0.013144

 77 H s       :     0.827663  s :     0.827663
      pz      :     0.004529  p :     0.022350
      px      :     0.012460
      py      :     0.005362

 78 H s       :     0.821069  s :     0.821069
      pz      :     0.007273  p :     0.021913
      px      :     0.009389
      py      :     0.005251

 79 H s       :     0.813190  s :     0.813190
      pz      :     0.011843  p :     0.021788
      px      :     0.005808
      py      :     0.004137

 80 H s       :     0.825234  s :     0.825234
      pz      :     0.004427  p :     0.022836
      px      :     0.008619
      py      :     0.009791

 81 H s       :     0.826202  s :     0.826202
      pz      :     0.004066  p :     0.021581
      px      :     0.011589
      py      :     0.005925

 82 H s       :     0.826665  s :     0.826665
      pz      :     0.012176  p :     0.021720
      px      :     0.004826
      py      :     0.004719

 83 H s       :     0.824028  s :     0.824028
      pz      :     0.005959  p :     0.022305
      px      :     0.004559
      py      :     0.011787

 84 H s       :     0.848245  s :     0.848245
      pz      :     0.008956  p :     0.022592
      px      :     0.009497
      py      :     0.004139

 85 H s       :     0.864160  s :     0.864160
      pz      :     0.005784  p :     0.022547
      px      :     0.004683
      py      :     0.012080

 86 H s       :     0.839558  s :     0.839558
      pz      :     0.004486  p :     0.021215
      px      :     0.004486
      py      :     0.012242

 87 H s       :     0.841267  s :     0.841267
      pz      :     0.008952  p :     0.021306
      px      :     0.008176
      py      :     0.004178

 88 H s       :     0.840356  s :     0.840356
      pz      :     0.005797  p :     0.021500
      px      :     0.010357
      py      :     0.005347

 89 H s       :     0.859905  s :     0.859905
      pz      :     0.004947  p :     0.021691
      px      :     0.011129
      py      :     0.005615

 90 H s       :     0.857247  s :     0.857247
      pz      :     0.004717  p :     0.021475
      px      :     0.008095
      py      :     0.008663

 91 H s       :     0.840198  s :     0.840198
      pz      :     0.012768  p :     0.021323
      px      :     0.004195
      py      :     0.004359

 92 H s       :     0.849213  s :     0.849213
      pz      :     0.004690  p :     0.021637
      px      :     0.011210
      py      :     0.005737

 93 H s       :     0.848849  s :     0.848849
      pz      :     0.004634  p :     0.021686
      px      :     0.008417
      py      :     0.008635

 94 H s       :     0.829388  s :     0.829388
      pz      :     0.004294  p :     0.021683
      px      :     0.013023
      py      :     0.004367

 95 H s       :     0.824996  s :     0.824996
      pz      :     0.007544  p :     0.021320
      px      :     0.004224
      py      :     0.009553

 96 H s       :     0.828849  s :     0.828849
      pz      :     0.011178  p :     0.021248
      px      :     0.004830
      py      :     0.005239

 97 H s       :     0.823809  s :     0.823809
      pz      :     0.009176  p :     0.023270
      px      :     0.005035
      py      :     0.009059

 98 H s       :     0.822717  s :     0.822717
      pz      :     0.003752  p :     0.020337
      px      :     0.010727
      py      :     0.005858

 99 H s       :     0.832211  s :     0.832211
      pz      :     0.007085  p :     0.020239
      px      :     0.005424
      py      :     0.007731

100 H s       :     0.829425  s :     0.829425
      pz      :     0.005711  p :     0.020270
      px      :     0.004093
      py      :     0.010466

101 H s       :     0.832084  s :     0.832084
      pz      :     0.005775  p :     0.021263
      px      :     0.008677
      py      :     0.006812

102 H s       :     0.812492  s :     0.812492
      pz      :     0.006401  p :     0.021090
      px      :     0.010723
      py      :     0.003965

103 H s       :     0.829266  s :     0.829266
      pz      :     0.005047  p :     0.022752
      px      :     0.013931
      py      :     0.003773

104 H s       :     0.837892  s :     0.837892
      pz      :     0.006072  p :     0.021356
      px      :     0.005983
      py      :     0.009302

105 H s       :     0.842568  s :     0.842568
      pz      :     0.005413  p :     0.022324
      px      :     0.006125
      py      :     0.010785

106 H s       :     0.827124  s :     0.827124
      pz      :     0.012424  p :     0.021957
      px      :     0.005087
      py      :     0.004446

107 H s       :     0.853797  s :     0.853797
      pz      :     0.005254  p :     0.021850
      px      :     0.012562
      py      :     0.004034

108 H s       :     0.854038  s :     0.854038
      pz      :     0.006424  p :     0.021493
      px      :     0.005604
      py      :     0.009464

109 H s       :     0.853316  s :     0.853316
      pz      :     0.005527  p :     0.022510
      px      :     0.012750
      py      :     0.004232

110 H s       :     0.863959  s :     0.863959
      pz      :     0.006346  p :     0.021537
      px      :     0.005537
      py      :     0.009653

111 H s       :     0.868610  s :     0.868610
      pz      :     0.005936  p :     0.021777
      px      :     0.011708
      py      :     0.004132

112 H s       :     0.870684  s :     0.870684
      pz      :     0.006005  p :     0.021435
      px      :     0.005801
      py      :     0.009628

113 H s       :     0.902792  s :     0.902792
      pz      :     0.005803  p :     0.021991
      px      :     0.005798
      py      :     0.010391

114 H s       :     0.842931  s :     0.842931
      pz      :     0.013072  p :     0.022078
      px      :     0.004476
      py      :     0.004531

115 H s       :     0.860386  s :     0.860386
      pz      :     0.005326  p :     0.021287
      px      :     0.006278
      py      :     0.009683

116 H s       :     0.844390  s :     0.844390
      pz      :     0.004572  p :     0.022050
      px      :     0.007865
      py      :     0.009614

117 H s       :     0.871391  s :     0.871391
      pz      :     0.007176  p :     0.021778
      px      :     0.010327
      py      :     0.004275

118 H s       :     0.872736  s :     0.872736
      pz      :     0.005455  p :     0.021441
      px      :     0.005593
      py      :     0.010394

119 H s       :     0.866120  s :     0.866120
      pz      :     0.007640  p :     0.022822
      px      :     0.010650
      py      :     0.004532

120 H s       :     0.876327  s :     0.876327
      pz      :     0.005531  p :     0.021502
      px      :     0.005300
      py      :     0.010671

121 H s       :     0.871962  s :     0.871962
      pz      :     0.007893  p :     0.021781
      px      :     0.009539
      py      :     0.004350

122 H s       :     0.873312  s :     0.873312
      pz      :     0.005279  p :     0.021447
      px      :     0.005420
      py      :     0.010749

123 H s       :     0.904680  s :     0.904680
      pz      :     0.005160  p :     0.021991
      px      :     0.005227
      py      :     0.011604

124 H s       :     0.843359  s :     0.843359
      pz      :     0.012308  p :     0.022063
      px      :     0.005358
      py      :     0.004398

125 H s       :     0.861207  s :     0.861207
      pz      :     0.004774  p :     0.021287
      px      :     0.005558
      py      :     0.010955

126 H s       :     0.843978  s :     0.843978
      pz      :     0.004513  p :     0.022076
      px      :     0.009698
      py      :     0.007864

127 H s       :     0.872117  s :     0.872117
      pz      :     0.009090  p :     0.021775
      px      :     0.007921
      py      :     0.004764

128 H s       :     0.873382  s :     0.873382
      pz      :     0.005035  p :     0.021439
      px      :     0.004972
      py      :     0.011432

129 H s       :     0.862817  s :     0.862817
      pz      :     0.009515  p :     0.022722
      px      :     0.007943
      py      :     0.005264

130 H s       :     0.877477  s :     0.877477
      pz      :     0.005194  p :     0.021490
      px      :     0.004692
      py      :     0.011604

131 H s       :     0.873077  s :     0.873077
      pz      :     0.009684  p :     0.021657
      px      :     0.007010
      py      :     0.004963

132 H s       :     0.873534  s :     0.873534
      pz      :     0.004947  p :     0.021391
      px      :     0.004715
      py      :     0.011730

133 H s       :     0.904085  s :     0.904085
      pz      :     0.004777  p :     0.021919
      px      :     0.004653
      py      :     0.012489

134 H s       :     0.849792  s :     0.849792
      pz      :     0.010211  p :     0.021375
      px      :     0.006892
      py      :     0.004272

135 H s       :     0.861907  s :     0.861907
      pz      :     0.004528  p :     0.021202
      px      :     0.005019
      py      :     0.011655

136 H s       :     0.846313  s :     0.846313
      pz      :     0.005098  p :     0.021878
      px      :     0.010338
      py      :     0.006441

137 H s       :     0.850321  s :     0.850321
      pz      :     0.009526  p :     0.021368
      px      :     0.007571
      py      :     0.004272

138 H s       :     0.853564  s :     0.853564
      pz      :     0.008902  p :     0.021302
      px      :     0.006818
      py      :     0.005582

139 H s       :     0.862628  s :     0.862628
      pz      :     0.004861  p :     0.021184
      px      :     0.004434
      py      :     0.011889



                     *******************************
                     * LOEWDIN POPULATION ANALYSIS *
                     *******************************

----------------------
LOEWDIN ATOMIC CHARGES
----------------------
   0 Mg:    0.364022
   1 C :   -0.071664
   2 C :   -0.109297
   3 C :   -0.109020
   4 C :   -0.111986
   5 N :    0.214183
   6 C :   -0.145168
   7 C :   -0.165632
   8 C :   -0.190049
   9 C :   -0.169685
  10 C :   -0.267539
  11 C :   -0.217161
  12 C :   -0.213468
  13 C :   -0.465853
  14 O :    0.074284
  15 O :    0.244636
  16 N :    0.166238
  17 C :   -0.169215
  18 C :   -0.076541
  19 C :   -0.080797
  20 C :   -0.153817
  21 C :   -0.246866
  22 C :   -0.300780
  23 O :    0.071787
  24 C :   -0.252038
  25 N :    0.209252
  26 C :   -0.164361
  27 C :   -0.193599
  28 C :   -0.173749
  29 C :   -0.172820
  30 C :   -0.269620
  31 C :   -0.256801
  32 C :   -0.305586
  33 N :    0.174359
  34 C :   -0.169908
  35 C :   -0.097918
  36 C :   -0.092416
  37 C :   -0.154393
  38 C :   -0.255773
  39 C :   -0.240830
  40 O :    0.082027
  41 C :   -0.107163
  42 C :   -0.454638
  43 O :    0.084534
  44 O :    0.245039
  45 C :   -0.296346
  46 C :   -0.259210
  47 C :   -0.182421
  48 C :   -0.187097
  49 C :   -0.254869
  50 C :   -0.220274
  51 C :   -0.255565
  52 C :   -0.245392
  53 C :   -0.286517
  54 C :   -0.288186
  55 C :   -0.246194
  56 C :   -0.265296
  57 C :   -0.246402
  58 C :   -0.287117
  59 C :   -0.288580
  60 C :   -0.246667
  61 C :   -0.265532
  62 C :   -0.249393
  63 C :   -0.314904
  64 C :   -0.292579
  65 C :   -0.293466
  66 H :    0.166596
  67 H :    0.167301
  68 H :    0.166929
  69 H :    0.169791
  70 H :    0.165947
  71 H :    0.124826
  72 H :    0.129954
  73 H :    0.127153
  74 H :    0.149190
  75 H :    0.144844
  76 H :    0.167717
  77 H :    0.154434
  78 H :    0.137800
  79 H :    0.140091
  80 H :    0.133301
  81 H :    0.133085
  82 H :    0.137787
  83 H :    0.142422
  84 H :    0.165220
  85 H :    0.165964
  86 H :    0.126090
  87 H :    0.128419
  88 H :    0.124800
  89 H :    0.139309
  90 H :    0.140253
  91 H :    0.121971
  92 H :    0.121356
  93 H :    0.123701
  94 H :    0.134570
  95 H :    0.137491
  96 H :    0.136099
  97 H :    0.181881
  98 H :    0.119887
  99 H :    0.115887
 100 H :    0.117114
 101 H :    0.137578
 102 H :    0.139282
 103 H :    0.147794
 104 H :    0.134029
 105 H :    0.127733
 106 H :    0.135238
 107 H :    0.145556
 108 H :    0.145658
 109 H :    0.135487
 110 H :    0.138711
 111 H :    0.139810
 112 H :    0.138901
 113 H :    0.150882
 114 H :    0.119599
 115 H :    0.123042
 116 H :    0.119471
 117 H :    0.138642
 118 H :    0.138169
 119 H :    0.133079
 120 H :    0.136999
 121 H :    0.138408
 122 H :    0.138027
 123 H :    0.150353
 124 H :    0.119453
 125 H :    0.122846
 126 H :    0.119276
 127 H :    0.138402
 128 H :    0.138046
 129 H :    0.133562
 130 H :    0.136984
 131 H :    0.138580
 132 H :    0.137806
 133 H :    0.148313
 134 H :    0.121090
 135 H :    0.121803
 136 H :    0.118767
 137 H :    0.120227
 138 H :    0.120032
 139 H :    0.120976

-------------------------------
LOEWDIN REDUCED ORBITAL CHARGES
-------------------------------
  0 Mgs       :     4.238207  s :     4.238207
      pz      :     2.132992  p :     6.687805
      px      :     2.293897
      py      :     2.260916
      dz2     :     0.081877  d :     0.709966
      dxz     :     0.114145
      dyz     :     0.082719
      dx2y2   :     0.179430
      dxy     :     0.251795

  1 C s       :     2.680037  s :     2.680037
      pz      :     0.899143  p :     2.836682
      px      :     0.950966
      py      :     0.986573
      dz2     :     0.049991  d :     0.497950
      dxz     :     0.070971
      dyz     :     0.079949
      dx2y2   :     0.160010
      dxy     :     0.137028
      f0      :     0.004490  f :     0.056995
      f+1     :     0.004707
      f-1     :     0.004752
      f+2     :     0.008605
      f-2     :     0.006259
      f+3     :     0.012568
      f-3     :     0.015613

  2 C s       :     2.741052  s :     2.741052
      pz      :     0.946946  p :     2.962766
      px      :     1.027441
      py      :     0.988379
      dz2     :     0.025334  d :     0.365377
      dxz     :     0.079592
      dyz     :     0.030179
      dx2y2   :     0.117533
      dxy     :     0.112739
      f0      :     0.003889  f :     0.040101
      f+1     :     0.005150
      f-1     :     0.001941
      f+2     :     0.004885
      f-2     :     0.004728
      f+3     :     0.009085
      f-3     :     0.010424

  3 C s       :     2.742591  s :     2.742591
      pz      :     0.944209  p :     2.965822
      px      :     1.011426
      py      :     1.010188
      dz2     :     0.036795  d :     0.360706
      dxz     :     0.027298
      dyz     :     0.066552
      dx2y2   :     0.123480
      dxy     :     0.106582
      f0      :     0.003188  f :     0.039900
      f+1     :     0.003324
      f-1     :     0.004691
      f+2     :     0.004645
      f-2     :     0.005445
      f+3     :     0.010037
      f-3     :     0.008570

  4 C s       :     2.744182  s :     2.744182
      pz      :     0.938595  p :     2.956289
      px      :     1.028322
      py      :     0.989373
      dz2     :     0.025091  d :     0.371042
      dxz     :     0.082736
      dyz     :     0.031463
      dx2y2   :     0.117180
      dxy     :     0.114572
      f0      :     0.003808  f :     0.040473
      f+1     :     0.005062
      f-1     :     0.002176
      f+2     :     0.004754
      f-2     :     0.005048
      f+3     :     0.009054
      f-3     :     0.010571

  5 N s       :     2.972899  s :     2.972899
      pz      :     1.135901  p :     3.584436
      px      :     1.159400
      py      :     1.289135
      dz2     :     0.020375  d :     0.210006
      dxz     :     0.045139
      dyz     :     0.019688
      dx2y2   :     0.062195
      dxy     :     0.062609
      f0      :     0.001299  f :     0.018476
      f+1     :     0.001505
      f-1     :     0.001295
      f+2     :     0.002924
      f-2     :     0.001873
      f+3     :     0.003614
      f-3     :     0.005966

  6 C s       :     2.696239  s :     2.696239
      pz      :     0.851215  p :     2.757232
      px      :     0.931801
      py      :     0.974216
      dz2     :     0.056513  d :     0.614644
      dxz     :     0.117264
      dyz     :     0.075330
      dx2y2   :     0.182343
      dxy     :     0.183194
      f0      :     0.005786  f :     0.077053
      f+1     :     0.006773
      f-1     :     0.005133
      f+2     :     0.012266
      f-2     :     0.007106
      f+3     :     0.017543
      f-3     :     0.022446

  7 C s       :     2.709064  s :     2.709064
      pz      :     0.984885  p :     2.920219
      px      :     0.971884
      py      :     0.963450
      dz2     :     0.073682  d :     0.482891
      dxz     :     0.123503
      dyz     :     0.088613
      dx2y2   :     0.119018
      dxy     :     0.078075
      f0      :     0.006629  f :     0.053459
      f+1     :     0.007073
      f-1     :     0.007454
      f+2     :     0.008311
      f-2     :     0.005616
      f+3     :     0.010560
      f-3     :     0.007816

  8 C s       :     2.714854  s :     2.714854
      pz      :     1.001127  p :     2.933646
      px      :     0.958998
      py      :     0.973522
      dz2     :     0.110643  d :     0.487463
      dxz     :     0.107939
      dyz     :     0.088629
      dx2y2   :     0.088722
      dxy     :     0.091531
      f0      :     0.006664  f :     0.054085
      f+1     :     0.010945
      f-1     :     0.008175
      f+2     :     0.006195
      f-2     :     0.007807
      f+3     :     0.007840
      f-3     :     0.006459

  9 C s       :     2.706663  s :     2.706663
      pz      :     0.827616  p :     2.757729
      px      :     1.011917
      py      :     0.918196
      dz2     :     0.067670  d :     0.627294
      dxz     :     0.120903
      dyz     :     0.081816
      dx2y2   :     0.174123
      dxy     :     0.182783
      f0      :     0.005635  f :     0.077999
      f+1     :     0.007029
      f-1     :     0.007191
      f+2     :     0.011125
      f-2     :     0.009372
      f+3     :     0.012093
      f-3     :     0.025553

 10 C s       :     2.824780  s :     2.824780
      pz      :     1.014504  p :     3.159769
      px      :     1.072561
      py      :     1.072705
      dz2     :     0.057567  d :     0.258789
      dxz     :     0.070343
      dyz     :     0.069850
      dx2y2   :     0.027487
      dxy     :     0.033543
      f0      :     0.005065  f :     0.024201
      f+1     :     0.005562
      f-1     :     0.005915
      f+2     :     0.002556
      f-2     :     0.002167
      f+3     :     0.001650
      f-3     :     0.001286

 11 C s       :     2.764903  s :     2.764903
      pz      :     0.991649  p :     3.026051
      px      :     1.020020
      py      :     1.014382
      dz2     :     0.093573  d :     0.388539
      dxz     :     0.088104
      dyz     :     0.079693
      dx2y2   :     0.085303
      dxy     :     0.041865
      f0      :     0.008195  f :     0.037669
      f+1     :     0.005460
      f-1     :     0.005000
      f+2     :     0.005827
      f-2     :     0.006916
      f+3     :     0.002218
      f-3     :     0.004052

 12 C s       :     2.767229  s :     2.767229
      pz      :     0.996200  p :     3.050440
      px      :     1.031241
      py      :     1.022999
      dz2     :     0.088701  d :     0.358955
      dxz     :     0.077237
      dyz     :     0.078723
      dx2y2   :     0.069029
      dxy     :     0.045266
      f0      :     0.006781  f :     0.036844
      f+1     :     0.005791
      f-1     :     0.005351
      f+2     :     0.005502
      f-2     :     0.007040
      f+3     :     0.002076
      f-3     :     0.004304

 13 C s       :     2.753286  s :     2.753286
      pz      :     0.879445  p :     2.616016
      px      :     0.968445
      py      :     0.768127
      dz2     :     0.149622  d :     0.942015
      dxz     :     0.301331
      dyz     :     0.069395
      dx2y2   :     0.190020
      dxy     :     0.231648
      f0      :     0.019600  f :     0.154535
      f+1     :     0.032088
      f-1     :     0.007608
      f+2     :     0.027165
      f-2     :     0.019864
      f+3     :     0.023982
      f-3     :     0.024229

 14 O s       :     3.389544  s :     3.389544
      pz      :     1.539679  p :     4.463604
      px      :     1.508195
      py      :     1.415730
      dz2     :     0.008726  d :     0.066391
      dxz     :     0.018754
      dyz     :     0.000988
      dx2y2   :     0.022958
      dxy     :     0.014964
      f0      :     0.000684  f :     0.006176
      f+1     :     0.001186
      f-1     :     0.000088
      f+2     :     0.001098
      f-2     :     0.000203
      f+3     :     0.001627
      f-3     :     0.001290

 15 O s       :     3.261818  s :     3.261818
      pz      :     1.353433  p :     4.384239
      px      :     1.546646
      py      :     1.484161
      dz2     :     0.022632  d :     0.102995
      dxz     :     0.030862
      dyz     :     0.020875
      dx2y2   :     0.013816
      dxy     :     0.014809
      f0      :     0.000873  f :     0.006312
      f+1     :     0.001256
      f-1     :     0.000794
      f+2     :     0.001132
      f-2     :     0.001042
      f+3     :     0.000614
      f-3     :     0.000600

 16 N s       :     2.967480  s :     2.967480
      pz      :     1.206290  p :     3.647419
      px      :     1.285904
      py      :     1.155225
      dz2     :     0.021818  d :     0.200529
      dxz     :     0.022626
      dyz     :     0.036042
      dx2y2   :     0.061783
      dxy     :     0.058260
      f0      :     0.001345  f :     0.018336
      f+1     :     0.001219
      f-1     :     0.001726
      f+2     :     0.002370
      f-2     :     0.002149
      f+3     :     0.005917
      f-3     :     0.003610

 17 C s       :     2.689899  s :     2.689899
      pz      :     0.849048  p :     2.766368
      px      :     0.991880
      py      :     0.925439
      dz2     :     0.069396  d :     0.633746
      dxz     :     0.091193
      dyz     :     0.109545
      dx2y2   :     0.180876
      dxy     :     0.182737
      f0      :     0.005387  f :     0.079201
      f+1     :     0.004818
      f-1     :     0.008365
      f+2     :     0.012740
      f-2     :     0.008958
      f+3     :     0.020794
      f-3     :     0.018138

 18 C s       :     2.705732  s :     2.705732
      pz      :     0.823085  p :     2.796965
      px      :     0.985466
      py      :     0.988414
      dz2     :     0.049744  d :     0.515208
      dxz     :     0.079498
      dyz     :     0.082411
      dx2y2   :     0.160580
      dxy     :     0.142975
      f0      :     0.004004  f :     0.058635
      f+1     :     0.004685
      f-1     :     0.005540
      f+2     :     0.008983
      f-2     :     0.006633
      f+3     :     0.009293
      f-3     :     0.019497

 19 C s       :     2.698247  s :     2.698247
      pz      :     0.913692  p :     2.863005
      px      :     0.968587
      py      :     0.980726
      dz2     :     0.050493  d :     0.464606
      dxz     :     0.062141
      dyz     :     0.063511
      dx2y2   :     0.144770
      dxy     :     0.143690
      f0      :     0.003988  f :     0.054939
      f+1     :     0.005869
      f-1     :     0.003546
      f+2     :     0.005797
      f-2     :     0.007676
      f+3     :     0.011652
      f-3     :     0.016412

 20 C s       :     2.690725  s :     2.690725
      pz      :     0.838442  p :     2.745542
      px      :     0.925796
      py      :     0.981304
      dz2     :     0.060325  d :     0.638128
      dxz     :     0.116679
      dyz     :     0.092569
      dx2y2   :     0.182710
      dxy     :     0.185845
      f0      :     0.005346  f :     0.079422
      f+1     :     0.007193
      f-1     :     0.005623
      f+2     :     0.008214
      f-2     :     0.012956
      f+3     :     0.026736
      f-3     :     0.013353

 21 C s       :     2.807712  s :     2.807712
      pz      :     1.070078  p :     3.166730
      px      :     1.061807
      py      :     1.034844
      dz2     :     0.047681  d :     0.247905
      dxz     :     0.045036
      dyz     :     0.037272
      dx2y2   :     0.042121
      dxy     :     0.075794
      f0      :     0.002340  f :     0.024520
      f+1     :     0.002466
      f-1     :     0.003952
      f+2     :     0.004060
      f-2     :     0.002770
      f+3     :     0.003717
      f-3     :     0.005214

 22 C s       :     2.756048  s :     2.756048
      pz      :     0.791164  p :     2.663120
      px      :     1.002077
      py      :     0.869878
      dz2     :     0.111115  d :     0.770682
      dxz     :     0.143830
      dyz     :     0.125953
      dx2y2   :     0.185200
      dxy     :     0.204583
      f0      :     0.008897  f :     0.110931
      f+1     :     0.008296
      f-1     :     0.016052
      f+2     :     0.021667
      f-2     :     0.014462
      f+3     :     0.017566
      f-3     :     0.023991

 23 O s       :     3.396482  s :     3.396482
      pz      :     1.387018  p :     4.458359
      px      :     1.638490
      py      :     1.432852
      dz2     :     0.008446  d :     0.067503
      dxz     :     0.008425
      dyz     :     0.018905
      dx2y2   :     0.014535
      dxy     :     0.017191
      f0      :     0.000456  f :     0.005869
      f+1     :     0.000219
      f-1     :     0.000868
      f+2     :     0.001200
      f-2     :     0.001236
      f+3     :     0.000889
      f-3     :     0.001001

 24 C s       :     2.828939  s :     2.828939
      pz      :     1.063242  p :     3.180826
      px      :     1.049657
      py      :     1.067927
      dz2     :     0.050874  d :     0.219364
      dxz     :     0.032512
      dyz     :     0.040487
      dx2y2   :     0.050134
      dxy     :     0.045357
      f0      :     0.002534  f :     0.022908
      f+1     :     0.003596
      f-1     :     0.002051
      f+2     :     0.004337
      f-2     :     0.003475
      f+3     :     0.002148
      f-3     :     0.004768

 25 N s       :     2.971075  s :     2.971075
      pz      :     1.132002  p :     3.589880
      px      :     1.172196
      py      :     1.285682
      dz2     :     0.020509  d :     0.211357
      dxz     :     0.042274
      dyz     :     0.020241
      dx2y2   :     0.064234
      dxy     :     0.064099
      f0      :     0.001216  f :     0.018435
      f+1     :     0.001565
      f-1     :     0.001307
      f+2     :     0.002812
      f-2     :     0.001744
      f+3     :     0.003628
      f-3     :     0.006162

 26 C s       :     2.706956  s :     2.706956
      pz      :     0.813985  p :     2.750962
      px      :     0.959402
      py      :     0.977576
      dz2     :     0.053159  d :     0.628370
      dxz     :     0.123910
      dyz     :     0.072923
      dx2y2   :     0.188930
      dxy     :     0.189448
      f0      :     0.005607  f :     0.078073
      f+1     :     0.006973
      f-1     :     0.004695
      f+2     :     0.012368
      f-2     :     0.006915
      f+3     :     0.017803
      f-3     :     0.023712

 27 C s       :     2.714549  s :     2.714549
      pz      :     0.996445  p :     2.937084
      px      :     0.973389
      py      :     0.967250
      dz2     :     0.077713  d :     0.487766
      dxz     :     0.125741
      dyz     :     0.087412
      dx2y2   :     0.116252
      dxy     :     0.080648
      f0      :     0.007136  f :     0.054201
      f+1     :     0.007027
      f-1     :     0.007566
      f+2     :     0.008231
      f-2     :     0.005656
      f+3     :     0.010855
      f-3     :     0.007730

 28 C s       :     2.714240  s :     2.714240
      pz      :     0.990464  p :     2.922809
      px      :     0.959673
      py      :     0.972672
      dz2     :     0.105426  d :     0.483541
      dxz     :     0.106164
      dyz     :     0.091196
      dx2y2   :     0.088569
      dxy     :     0.092186
      f0      :     0.006767  f :     0.053159
      f+1     :     0.010360
      f-1     :     0.007094
      f+2     :     0.006475
      f-2     :     0.007793
      f+3     :     0.008084
      f-3     :     0.006585

 29 C s       :     2.705215  s :     2.705215
      pz      :     0.844433  p :     2.773101
      px      :     1.012001
      py      :     0.916667
      dz2     :     0.062779  d :     0.617763
      dxz     :     0.118521
      dyz     :     0.080910
      dx2y2   :     0.173346
      dxy     :     0.182207
      f0      :     0.005471  f :     0.076740
      f+1     :     0.006652
      f-1     :     0.007296
      f+2     :     0.010368
      f-2     :     0.009218
      f+3     :     0.012504
      f-3     :     0.025231

 30 C s       :     2.825033  s :     2.825033
      pz      :     1.044233  p :     3.160698
      px      :     1.064668
      py      :     1.051797
      dz2     :     0.054541  d :     0.259658
      dxz     :     0.080604
      dyz     :     0.040218
      dx2y2   :     0.056566
      dxy     :     0.027729
      f0      :     0.005270  f :     0.024231
      f+1     :     0.002867
      f-1     :     0.003737
      f+2     :     0.004314
      f-2     :     0.003438
      f+3     :     0.001654
      f-3     :     0.002950

 31 C s       :     2.774798  s :     2.774798
      pz      :     0.989296  p :     3.047466
      px      :     1.030207
      py      :     1.027964
      dz2     :     0.106159  d :     0.396987
      dxz     :     0.062520
      dyz     :     0.095413
      dx2y2   :     0.042770
      dxy     :     0.090125
      f0      :     0.005300  f :     0.037550
      f+1     :     0.006287
      f-1     :     0.009752
      f+2     :     0.004240
      f-2     :     0.004632
      f+3     :     0.003282
      f-3     :     0.004057

 32 C s       :     2.823933  s :     2.823933
      pz      :     1.058495  p :     3.194125
      px      :     1.073559
      py      :     1.062071
      dz2     :     0.085184  d :     0.262786
      dxz     :     0.011198
      dyz     :     0.040230
      dx2y2   :     0.040002
      dxy     :     0.086172
      f0      :     0.003022  f :     0.024742
      f+1     :     0.001471
      f-1     :     0.004732
      f+2     :     0.003945
      f-2     :     0.004272
      f+3     :     0.003232
      f-3     :     0.004069

 33 N s       :     2.964227  s :     2.964227
      pz      :     1.193780  p :     3.639517
      px      :     1.306619
      py      :     1.139118
      dz2     :     0.022210  d :     0.202824
      dxz     :     0.020843
      dyz     :     0.038428
      dx2y2   :     0.062861
      dxy     :     0.058482
      f0      :     0.001325  f :     0.019073
      f+1     :     0.001301
      f-1     :     0.001667
      f+2     :     0.002146
      f-2     :     0.002559
      f+3     :     0.006107
      f-3     :     0.003968

 34 C s       :     2.692543  s :     2.692543
      pz      :     0.874339  p :     2.780908
      px      :     0.987223
      py      :     0.919347
      dz2     :     0.062916  d :     0.619125
      dxz     :     0.094618
      dyz     :     0.101880
      dx2y2   :     0.176801
      dxy     :     0.182910
      f0      :     0.005196  f :     0.077332
      f+1     :     0.004929
      f-1     :     0.007951
      f+2     :     0.012101
      f-2     :     0.008837
      f+3     :     0.018116
      f-3     :     0.020202

 35 C s       :     2.705394  s :     2.705394
      pz      :     0.852333  p :     2.819656
      px      :     0.981744
      py      :     0.985578
      dz2     :     0.046924  d :     0.514156
      dxz     :     0.077986
      dyz     :     0.083651
      dx2y2   :     0.166131
      dxy     :     0.139464
      f0      :     0.003942  f :     0.058712
      f+1     :     0.004304
      f-1     :     0.005856
      f+2     :     0.009948
      f-2     :     0.005697
      f+3     :     0.009359
      f-3     :     0.019605

 36 C s       :     2.679832  s :     2.679832
      pz      :     0.917776  p :     2.859596
      px      :     0.961779
      py      :     0.980041
      dz2     :     0.053743  d :     0.490095
      dxz     :     0.055163
      dyz     :     0.077271
      dx2y2   :     0.132572
      dxy     :     0.171348
      f0      :     0.004195  f :     0.062893
      f+1     :     0.005474
      f-1     :     0.004355
      f+2     :     0.005084
      f-2     :     0.010266
      f+3     :     0.018491
      f-3     :     0.015028

 37 C s       :     2.659507  s :     2.659507
      pz      :     0.831502  p :     2.730709
      px      :     0.940988
      py      :     0.958220
      dz2     :     0.062564  d :     0.676567
      dxz     :     0.132868
      dyz     :     0.092332
      dx2y2   :     0.196305
      dxy     :     0.192498
      f0      :     0.005679  f :     0.087610
      f+1     :     0.007761
      f-1     :     0.005795
      f+2     :     0.007436
      f-2     :     0.015155
      f+3     :     0.030453
      f-3     :     0.015330

 38 C s       :     2.810079  s :     2.810079
      pz      :     1.068236  p :     3.170368
      px      :     1.060164
      py      :     1.041968
      dz2     :     0.043572  d :     0.250494
      dxz     :     0.019503
      dyz     :     0.071724
      dx2y2   :     0.076146
      dxy     :     0.039549
      f0      :     0.002154  f :     0.024833
      f+1     :     0.003490
      f-1     :     0.003331
      f+2     :     0.002885
      f-2     :     0.003830
      f+3     :     0.003931
      f-3     :     0.005211

 39 C s       :     2.743128  s :     2.743128
      pz      :     0.713899  p :     2.623347
      px      :     0.987101
      py      :     0.922348
      dz2     :     0.054579  d :     0.768918
      dxz     :     0.165329
      dyz     :     0.055427
      dx2y2   :     0.232322
      dxy     :     0.261261
      f0      :     0.007549  f :     0.105437
      f+1     :     0.011217
      f-1     :     0.003973
      f+2     :     0.013276
      f-2     :     0.010532
      f+3     :     0.031276
      f-3     :     0.027613

 40 O s       :     3.393634  s :     3.393634
      pz      :     1.331722  p :     4.450549
      px      :     1.517537
      py      :     1.601290
      dz2     :     0.007541  d :     0.067770
      dxz     :     0.013691
      dyz     :     0.001373
      dx2y2   :     0.022886
      dxy     :     0.022279
      f0      :     0.000466  f :     0.006020
      f+1     :     0.000865
      f-1     :     0.000154
      f+2     :     0.000671
      f-2     :     0.000293
      f+3     :     0.001758
      f-3     :     0.001814

 41 C s       :     2.720731  s :     2.720731
      pz      :     0.983795  p :     2.914527
      px      :     0.958771
      py      :     0.971960
      dz2     :     0.069795  d :     0.426017
      dxz     :     0.103743
      dyz     :     0.081025
      dx2y2   :     0.090380
      dxy     :     0.081074
      f0      :     0.007051  f :     0.045888
      f+1     :     0.006727
      f-1     :     0.004984
      f+2     :     0.006542
      f-2     :     0.005168
      f+3     :     0.006480
      f-3     :     0.008938

 42 C s       :     2.747007  s :     2.747007
      pz      :     1.020159  p :     2.613055
      px      :     0.849206
      py      :     0.743690
      dz2     :     0.247877  d :     0.940367
      dxz     :     0.263015
      dyz     :     0.167250
      dx2y2   :     0.133203
      dxy     :     0.129022
      f0      :     0.043142  f :     0.154209
      f+1     :     0.024505
      f-1     :     0.020119
      f+2     :     0.018010
      f-2     :     0.021687
      f+3     :     0.014857
      f-3     :     0.011888

 43 O s       :     3.389516  s :     3.389516
      pz      :     1.518262  p :     4.453063
      px      :     1.546057
      py      :     1.388743
      dz2     :     0.026084  d :     0.066689
      dxz     :     0.020225
      dyz     :     0.013744
      dx2y2   :     0.003189
      dxy     :     0.003447
      f0      :     0.001874  f :     0.006198
      f+1     :     0.001808
      f-1     :     0.001009
      f+2     :     0.000660
      f-2     :     0.000733
      f+3     :     0.000046
      f-3     :     0.000067

 44 O s       :     3.252173  s :     3.252173
      pz      :     1.501791  p :     4.387116
      px      :     1.359211
      py      :     1.526114
      dz2     :     0.023818  d :     0.108935
      dxz     :     0.030174
      dyz     :     0.013645
      dx2y2   :     0.019006
      dxy     :     0.022292
      f0      :     0.001272  f :     0.006736
      f+1     :     0.001248
      f-1     :     0.000601
      f+2     :     0.000813
      f-2     :     0.001066
      f+3     :     0.000681
      f-3     :     0.001055

 45 C s       :     2.862242  s :     2.862242
      pz      :     0.913336  p :     3.025708
      px      :     1.005707
      py      :     1.106665
      dz2     :     0.079660  d :     0.356106
      dxz     :     0.087487
      dyz     :     0.100269
      dx2y2   :     0.040165
      dxy     :     0.048525
      f0      :     0.012060  f :     0.052289
      f+1     :     0.012250
      f-1     :     0.005018
      f+2     :     0.008282
      f-2     :     0.008466
      f+3     :     0.003143
      f-3     :     0.003071

 46 C s       :     2.796222  s :     2.796222
      pz      :     0.860121  p :     2.916453
      px      :     1.062091
      py      :     0.994241
      dz2     :     0.075760  d :     0.482479
      dxz     :     0.115874
      dyz     :     0.123356
      dx2y2   :     0.080500
      dxy     :     0.086989
      f0      :     0.012865  f :     0.064055
      f+1     :     0.006618
      f-1     :     0.013211
      f+2     :     0.009319
      f-2     :     0.009114
      f+3     :     0.005341
      f-3     :     0.007588

 47 C s       :     2.775550  s :     2.775550
      pz      :     0.951316  p :     2.994256
      px      :     1.011818
      py      :     1.031121
      dz2     :     0.028231  d :     0.372389
      dxz     :     0.020878
      dyz     :     0.065146
      dx2y2   :     0.162476
      dxy     :     0.095658
      f0      :     0.003057  f :     0.040226
      f+1     :     0.003135
      f-1     :     0.004351
      f+2     :     0.003789
      f-2     :     0.005763
      f+3     :     0.008053
      f-3     :     0.012077

 48 C s       :     2.732199  s :     2.732199
      pz      :     0.820228  p :     2.861810
      px      :     1.022310
      py      :     1.019272
      dz2     :     0.052537  d :     0.536367
      dxz     :     0.081101
      dyz     :     0.077877
      dx2y2   :     0.169892
      dxy     :     0.154959
      f0      :     0.004252  f :     0.056720
      f+1     :     0.004617
      f-1     :     0.004662
      f+2     :     0.007625
      f-2     :     0.006815
      f+3     :     0.008379
      f-3     :     0.020370

 49 C s       :     2.811396  s :     2.811396
      pz      :     1.072433  p :     3.168736
      px      :     1.029875
      py      :     1.066429
      dz2     :     0.045707  d :     0.250270
      dxz     :     0.056841
      dyz     :     0.021001
      dx2y2   :     0.048449
      dxy     :     0.078271
      f0      :     0.004029  f :     0.024467
      f+1     :     0.002996
      f-1     :     0.000449
      f+2     :     0.004169
      f-2     :     0.003043
      f+3     :     0.004625
      f-3     :     0.005155

 50 C s       :     2.763828  s :     2.763828
      pz      :     1.013781  p :     3.031466
      px      :     1.019000
      py      :     0.998685
      dz2     :     0.079107  d :     0.387042
      dxz     :     0.072907
      dyz     :     0.100556
      dx2y2   :     0.077690
      dxy     :     0.056782
      f0      :     0.006614  f :     0.037939
      f+1     :     0.006165
      f-1     :     0.006795
      f+2     :     0.004403
      f-2     :     0.004755
      f+3     :     0.004852
      f-3     :     0.004354

 51 C s       :     2.772055  s :     2.772055
      pz      :     1.002077  p :     3.049266
      px      :     1.027987
      py      :     1.019202
      dz2     :     0.081817  d :     0.395898
      dxz     :     0.074456
      dyz     :     0.101114
      dx2y2   :     0.083971
      dxy     :     0.054540
      f0      :     0.006756  f :     0.038346
      f+1     :     0.006593
      f-1     :     0.006717
      f+2     :     0.004092
      f-2     :     0.005108
      f+3     :     0.004372
      f-3     :     0.004708

 52 C s       :     2.770518  s :     2.770518
      pz      :     1.002145  p :     3.038852
      px      :     1.021595
      py      :     1.015112
      dz2     :     0.077161  d :     0.398079
      dxz     :     0.083712
      dyz     :     0.098432
      dx2y2   :     0.078246
      dxy     :     0.060529
      f0      :     0.006681  f :     0.037943
      f+1     :     0.005615
      f-1     :     0.007015
      f+2     :     0.004761
      f-2     :     0.004844
      f+3     :     0.004325
      f-3     :     0.004703

 53 C s       :     2.730355  s :     2.730355
      pz      :     0.991572  p :     2.981312
      px      :     0.999243
      py      :     0.990497
      dz2     :     0.113869  d :     0.522199
      dxz     :     0.110142
      dyz     :     0.094230
      dx2y2   :     0.092037
      dxy     :     0.111921
      f0      :     0.007795  f :     0.052651
      f+1     :     0.011007
      f-1     :     0.006380
      f+2     :     0.005434
      f-2     :     0.007712
      f+3     :     0.006547
      f-3     :     0.007776

 54 C s       :     2.822791  s :     2.822791
      pz      :     1.062053  p :     3.177162
      px      :     1.045170
      py      :     1.069939
      dz2     :     0.080546  d :     0.263776
      dxz     :     0.041790
      dyz     :     0.017387
      dx2y2   :     0.032931
      dxy     :     0.091121
      f0      :     0.003137  f :     0.024457
      f+1     :     0.004491
      f-1     :     0.001241
      f+2     :     0.003938
      f-2     :     0.004007
      f+3     :     0.004645
      f-3     :     0.003000

 55 C s       :     2.770583  s :     2.770583
      pz      :     1.015387  p :     3.038953
      px      :     1.010866
      py      :     1.012700
      dz2     :     0.074640  d :     0.398717
      dxz     :     0.102876
      dyz     :     0.084561
      dx2y2   :     0.071879
      dxy     :     0.064760
      f0      :     0.007253  f :     0.037941
      f+1     :     0.004813
      f-1     :     0.006450
      f+2     :     0.005184
      f-2     :     0.005081
      f+3     :     0.004664
      f-3     :     0.004496

 56 C s       :     2.770163  s :     2.770163
      pz      :     1.018452  p :     3.057580
      px      :     1.020076
      py      :     1.019052
      dz2     :     0.072902  d :     0.398792
      dxz     :     0.104306
      dyz     :     0.081762
      dx2y2   :     0.075381
      dxy     :     0.064441
      f0      :     0.007865  f :     0.038761
      f+1     :     0.005071
      f-1     :     0.006094
      f+2     :     0.004679
      f-2     :     0.005429
      f+3     :     0.004973
      f-3     :     0.004649

 57 C s       :     2.770656  s :     2.770656
      pz      :     1.003637  p :     3.039066
      px      :     1.016364
      py      :     1.019065
      dz2     :     0.070698  d :     0.398742
      dxz     :     0.107516
      dyz     :     0.075946
      dx2y2   :     0.074153
      dxy     :     0.070429
      f0      :     0.007137  f :     0.037938
      f+1     :     0.004548
      f-1     :     0.005893
      f+2     :     0.004970
      f-2     :     0.005644
      f+3     :     0.005202
      f-3     :     0.004543

 58 C s       :     2.730421  s :     2.730421
      pz      :     0.996463  p :     2.981694
      px      :     0.994421
      py      :     0.990810
      dz2     :     0.116728  d :     0.522332
      dxz     :     0.121185
      dyz     :     0.086267
      dx2y2   :     0.093817
      dxy     :     0.104335
      f0      :     0.009500  f :     0.052671
      f+1     :     0.008768
      f-1     :     0.006394
      f+2     :     0.006508
      f-2     :     0.008382
      f+3     :     0.008059
      f-3     :     0.005060

 59 C s       :     2.822772  s :     2.822772
      pz      :     1.055675  p :     3.177223
      px      :     1.052532
      py      :     1.069016
      dz2     :     0.085043  d :     0.264104
      dxz     :     0.044608
      dyz     :     0.023036
      dx2y2   :     0.036449
      dxy     :     0.074969
      f0      :     0.002778  f :     0.024480
      f+1     :     0.005530
      f-1     :     0.002286
      f+2     :     0.004298
      f-2     :     0.003361
      f+3     :     0.003373
      f-3     :     0.002854

 60 C s       :     2.770661  s :     2.770661
      pz      :     1.017747  p :     3.039172
      px      :     1.003262
      py      :     1.018164
      dz2     :     0.072546  d :     0.398912
      dxz     :     0.112600
      dyz     :     0.066854
      dx2y2   :     0.076589
      dxy     :     0.070323
      f0      :     0.006901  f :     0.037921
      f+1     :     0.004705
      f-1     :     0.005046
      f+2     :     0.004328
      f-2     :     0.006809
      f+3     :     0.006287
      f-3     :     0.003844

 61 C s       :     2.770306  s :     2.770306
      pz      :     1.023371  p :     3.057968
      px      :     1.012945
      py      :     1.021652
      dz2     :     0.071499  d :     0.398507
      dxz     :     0.110141
      dyz     :     0.069228
      dx2y2   :     0.079093
      dxy     :     0.068546
      f0      :     0.007545  f :     0.038751
      f+1     :     0.004939
      f-1     :     0.004809
      f+2     :     0.004147
      f-2     :     0.006917
      f+3     :     0.006562
      f-3     :     0.003832

 62 C s       :     2.771559  s :     2.771559
      pz      :     1.009382  p :     3.040653
      px      :     1.009336
      py      :     1.021935
      dz2     :     0.072299  d :     0.399269
      dxz     :     0.109673
      dyz     :     0.061325
      dx2y2   :     0.083769
      dxy     :     0.072204
      f0      :     0.006246  f :     0.037912
      f+1     :     0.005178
      f-1     :     0.004569
      f+2     :     0.003972
      f-2     :     0.007214
      f+3     :     0.006811
      f-3     :     0.003923

 63 C s       :     2.733710  s :     2.733710
      pz      :     1.002040  p :     2.998223
      px      :     0.999989
      py      :     0.996194
      dz2     :     0.117831  d :     0.529557
      dxz     :     0.129782
      dyz     :     0.085470
      dx2y2   :     0.107394
      dxy     :     0.089080
      f0      :     0.010348  f :     0.053414
      f+1     :     0.007675
      f-1     :     0.006523
      f+2     :     0.007770
      f-2     :     0.008553
      f+3     :     0.007457
      f-3     :     0.005090

 64 C s       :     2.825620  s :     2.825620
      pz      :     1.047819  p :     3.177996
      px      :     1.062996
      py      :     1.067181
      dz2     :     0.068124  d :     0.264493
      dxz     :     0.069010
      dyz     :     0.033082
      dx2y2   :     0.046429
      dxy     :     0.047847
      f0      :     0.004236  f :     0.024469
      f+1     :     0.004295
      f-1     :     0.003316
      f+2     :     0.004720
      f-2     :     0.002909
      f+3     :     0.001967
      f-3     :     0.003026

 65 C s       :     2.827216  s :     2.827216
      pz      :     1.068875  p :     3.176104
      px      :     1.040729
      py      :     1.066500
      dz2     :     0.028510  d :     0.265648
      dxz     :     0.090623
      dyz     :     0.029300
      dx2y2   :     0.074597
      dxy     :     0.042618
      f0      :     0.002365  f :     0.024498
      f+1     :     0.004235
      f-1     :     0.002449
      f+2     :     0.002195
      f-2     :     0.003859
      f+3     :     0.005853
      f-3     :     0.003541

 66 H s       :     0.771762  s :     0.771762
      pz      :     0.018583  p :     0.061642
      px      :     0.013208
      py      :     0.029852

 67 H s       :     0.765726  s :     0.765726
      pz      :     0.014896  p :     0.066973
      px      :     0.038971
      py      :     0.013106

 68 H s       :     0.772861  s :     0.772861
      pz      :     0.017784  p :     0.060210
      px      :     0.012740
      py      :     0.029685

 69 H s       :     0.771735  s :     0.771735
      pz      :     0.022661  p :     0.058474
      px      :     0.023254
      py      :     0.012559

 70 H s       :     0.776343  s :     0.776343
      pz      :     0.014937  p :     0.057710
      px      :     0.013503
      py      :     0.029270

 71 H s       :     0.813601  s :     0.813601
      pz      :     0.015493  p :     0.061573
      px      :     0.031484
      py      :     0.014597

 72 H s       :     0.808662  s :     0.808662
      pz      :     0.015212  p :     0.061385
      px      :     0.014985
      py      :     0.031187

 73 H s       :     0.811627  s :     0.811627
      pz      :     0.014351  p :     0.061220
      px      :     0.023209
      py      :     0.023660

 74 H s       :     0.791910  s :     0.791910
      pz      :     0.014202  p :     0.058900
      px      :     0.013094
      py      :     0.031603

 75 H s       :     0.794347  s :     0.794347
      pz      :     0.014996  p :     0.060808
      px      :     0.030506
      py      :     0.015307

 76 H s       :     0.771023  s :     0.771023
      pz      :     0.014542  p :     0.061260
      px      :     0.013665
      py      :     0.033053

 77 H s       :     0.784734  s :     0.784734
      pz      :     0.013238  p :     0.060832
      px      :     0.031015
      py      :     0.016579

 78 H s       :     0.799929  s :     0.799929
      pz      :     0.021978  p :     0.062271
      px      :     0.025825
      py      :     0.014468

 79 H s       :     0.798057  s :     0.798057
      pz      :     0.032331  p :     0.061852
      px      :     0.016850
      py      :     0.012671

 80 H s       :     0.803983  s :     0.803983
      pz      :     0.013659  p :     0.062716
      px      :     0.025098
      py      :     0.023960

 81 H s       :     0.805068  s :     0.805068
      pz      :     0.012576  p :     0.061847
      px      :     0.030918
      py      :     0.018353

 82 H s       :     0.799438  s :     0.799438
      pz      :     0.033149  p :     0.062775
      px      :     0.015299
      py      :     0.014326

 83 H s       :     0.794368  s :     0.794368
      pz      :     0.018345  p :     0.063209
      px      :     0.013521
      py      :     0.031343

 84 H s       :     0.776933  s :     0.776933
      pz      :     0.022361  p :     0.057848
      px      :     0.023099
      py      :     0.012388

 85 H s       :     0.776572  s :     0.776572
      pz      :     0.015744  p :     0.057464
      px      :     0.013284
      py      :     0.028436

 86 H s       :     0.812786  s :     0.812786
      pz      :     0.014328  p :     0.061124
      px      :     0.013984
      py      :     0.032813

 87 H s       :     0.810454  s :     0.810454
      pz      :     0.023716  p :     0.061127
      px      :     0.024395
      py      :     0.013016

 88 H s       :     0.813539  s :     0.813539
      pz      :     0.016306  p :     0.061661
      px      :     0.028667
      py      :     0.016687

 89 H s       :     0.801889  s :     0.801889
      pz      :     0.014013  p :     0.058802
      px      :     0.029511
      py      :     0.015277

 90 H s       :     0.801271  s :     0.801271
      pz      :     0.013516  p :     0.058476
      px      :     0.023155
      py      :     0.021806

 91 H s       :     0.816799  s :     0.816799
      pz      :     0.033872  p :     0.061229
      px      :     0.013648
      py      :     0.013710

 92 H s       :     0.816822  s :     0.816822
      pz      :     0.014821  p :     0.061822
      px      :     0.030857
      py      :     0.016144

 93 H s       :     0.814369  s :     0.814369
      pz      :     0.014619  p :     0.061930
      px      :     0.024355
      py      :     0.022957

 94 H s       :     0.803814  s :     0.803814
      pz      :     0.013444  p :     0.061616
      px      :     0.034475
      py      :     0.013697

 95 H s       :     0.801460  s :     0.801460
      pz      :     0.022703  p :     0.061048
      px      :     0.013522
      py      :     0.024824

 96 H s       :     0.802825  s :     0.802825
      pz      :     0.031059  p :     0.061077
      px      :     0.015499
      py      :     0.014518

 97 H s       :     0.757574  s :     0.757574
      pz      :     0.023542  p :     0.060545
      px      :     0.014080
      py      :     0.022923

 98 H s       :     0.818221  s :     0.818221
      pz      :     0.012640  p :     0.061892
      px      :     0.031065
      py      :     0.018187

 99 H s       :     0.821576  s :     0.821576
      pz      :     0.021105  p :     0.062537
      px      :     0.017630
      py      :     0.023802

100 H s       :     0.820277  s :     0.820277
      pz      :     0.017151  p :     0.062608
      px      :     0.012882
      py      :     0.032575

101 H s       :     0.802104  s :     0.802104
      pz      :     0.015984  p :     0.060318
      px      :     0.026068
      py      :     0.018266

102 H s       :     0.801191  s :     0.801191
      pz      :     0.017350  p :     0.059527
      px      :     0.030322
      py      :     0.011855

103 H s       :     0.791503  s :     0.791503
      pz      :     0.015028  p :     0.060703
      px      :     0.034525
      py      :     0.011150

104 H s       :     0.805071  s :     0.805071
      pz      :     0.018503  p :     0.060900
      px      :     0.015543
      py      :     0.026854

105 H s       :     0.809957  s :     0.809957
      pz      :     0.016701  p :     0.062309
      px      :     0.015780
      py      :     0.029829

106 H s       :     0.803059  s :     0.803059
      pz      :     0.034001  p :     0.061703
      px      :     0.013828
      py      :     0.013874

107 H s       :     0.796294  s :     0.796294
      pz      :     0.014524  p :     0.058150
      px      :     0.031725
      py      :     0.011901

108 H s       :     0.796176  s :     0.796176
      pz      :     0.017249  p :     0.058166
      px      :     0.017021
      py      :     0.023896

109 H s       :     0.804583  s :     0.804583
      pz      :     0.015147  p :     0.059930
      px      :     0.031542
      py      :     0.013240

110 H s       :     0.802752  s :     0.802752
      pz      :     0.017024  p :     0.058538
      px      :     0.017031
      py      :     0.024482

111 H s       :     0.801867  s :     0.801867
      pz      :     0.015772  p :     0.058322
      px      :     0.029773
      py      :     0.012776

112 H s       :     0.802841  s :     0.802841
      pz      :     0.016353  p :     0.058258
      px      :     0.017434
      py      :     0.024471

113 H s       :     0.793114  s :     0.793114
      pz      :     0.015712  p :     0.056004
      px      :     0.015726
      py      :     0.024566

114 H s       :     0.818339  s :     0.818339
      pz      :     0.034155  p :     0.062062
      px      :     0.013631
      py      :     0.014276

115 H s       :     0.816277  s :     0.816277
      pz      :     0.016611  p :     0.060681
      px      :     0.017050
      py      :     0.027020

116 H s       :     0.818540  s :     0.818540
      pz      :     0.014274  p :     0.061989
      px      :     0.020585
      py      :     0.027130

117 H s       :     0.803102  s :     0.803102
      pz      :     0.018574  p :     0.058256
      px      :     0.026418
      py      :     0.013264

118 H s       :     0.803632  s :     0.803632
      pz      :     0.015135  p :     0.058200
      px      :     0.016546
      py      :     0.026519

119 H s       :     0.806872  s :     0.806872
      pz      :     0.019298  p :     0.060049
      px      :     0.026590
      py      :     0.014161

120 H s       :     0.804907  s :     0.804907
      pz      :     0.015232  p :     0.058094
      px      :     0.016123
      py      :     0.026739

121 H s       :     0.803350  s :     0.803350
      pz      :     0.019888  p :     0.058242
      px      :     0.024704
      py      :     0.013651

122 H s       :     0.803775  s :     0.803775
      pz      :     0.014745  p :     0.058197
      px      :     0.016323
      py      :     0.027130

123 H s       :     0.793693  s :     0.793693
      pz      :     0.014537  p :     0.055953
      px      :     0.014526
      py      :     0.026891

124 H s       :     0.818513  s :     0.818513
      pz      :     0.031660  p :     0.062034
      px      :     0.016486
      py      :     0.013888

125 H s       :     0.816496  s :     0.816496
      pz      :     0.015066  p :     0.060657
      px      :     0.015811
      py      :     0.029780

126 H s       :     0.818704  s :     0.818704
      pz      :     0.013683  p :     0.062020
      px      :     0.025392
      py      :     0.022944

127 H s       :     0.803373  s :     0.803373
      pz      :     0.022677  p :     0.058225
      px      :     0.020764
      py      :     0.014783

128 H s       :     0.803762  s :     0.803762
      pz      :     0.014309  p :     0.058191
      px      :     0.014801
      py      :     0.029082

129 H s       :     0.806496  s :     0.806496
      pz      :     0.023093  p :     0.059942
      px      :     0.020763
      py      :     0.016086

130 H s       :     0.804925  s :     0.804925
      pz      :     0.014612  p :     0.058090
      px      :     0.014306
      py      :     0.029173

131 H s       :     0.803233  s :     0.803233
      pz      :     0.023892  p :     0.058187
      px      :     0.018893
      py      :     0.015403

132 H s       :     0.804058  s :     0.804058
      pz      :     0.014139  p :     0.058136
      px      :     0.014370
      py      :     0.029627

133 H s       :     0.795672  s :     0.795672
      pz      :     0.013875  p :     0.056015
      px      :     0.013567
      py      :     0.028573

134 H s       :     0.817951  s :     0.817951
      pz      :     0.026518  p :     0.060959
      px      :     0.020955
      py      :     0.013486

135 H s       :     0.817513  s :     0.817513
      pz      :     0.014224  p :     0.060685
      px      :     0.015002
      py      :     0.031459

136 H s       :     0.819392  s :     0.819392
      pz      :     0.014534  p :     0.061841
      px      :     0.027788
      py      :     0.019519

137 H s       :     0.818861  s :     0.818861
      pz      :     0.027498  p :     0.060912
      px      :     0.020024
      py      :     0.013390

138 H s       :     0.819095  s :     0.819095
      pz      :     0.025301  p :     0.060873
      px      :     0.018223
      py      :     0.017350

139 H s       :     0.818255  s :     0.818255
      pz      :     0.014963  p :     0.060769
      px      :     0.013829
      py      :     0.031978



                      *****************************
                      * MAYER POPULATION ANALYSIS *
                      *****************************

  NA   - Mulliken gross atomic population
  ZA   - Total nuclear charge
  QA   - Mulliken gross atomic charge
  VA   - Mayer's total valence
  BVA  - Mayer's bonded valence
  FA   - Mayer's free valence

  ATOM       NA         ZA         QA         VA         BVA        FA
  0 Mg    11.1536    12.0000     0.8464     1.8528     1.8528    -0.0000
  1 C      6.2490     6.0000    -0.2490     3.7361     3.7361    -0.0000
  2 C      6.5031     6.0000    -0.5031     3.9709     3.9709    -0.0000
  3 C      6.4802     6.0000    -0.4802     3.9250     3.9250    -0.0000
  4 C      6.4333     6.0000    -0.4333     3.8695     3.8695    -0.0000
  5 N      7.4001     7.0000    -0.4001     3.0146     3.0146    -0.0000
  6 C      5.8865     6.0000     0.1135     3.5266     3.5266    -0.0000
  7 C      5.8471     6.0000     0.1529     3.7878     3.7878    -0.0000
  8 C      5.9900     6.0000     0.0100     3.8836     3.8836    -0.0000
  9 C      5.8496     6.0000     0.1504     4.0292     4.0292    -0.0000
 10 C      6.4465     6.0000    -0.4465     3.9301     3.9301    -0.0000
 11 C      6.3548     6.0000    -0.3548     4.0312     4.0312    -0.0000
 12 C      6.2231     6.0000    -0.2231     3.8171     3.8171    -0.0000
 13 C      5.6336     6.0000     0.3664     4.2758     4.2758    -0.0000
 14 O      8.4271     8.0000    -0.4271     2.0799     2.0799    -0.0000
 15 O      8.2772     8.0000    -0.2772     2.1052     2.1052    -0.0000
 16 N      7.4134     7.0000    -0.4134     3.0834     3.0834     0.0000
 17 C      5.6726     6.0000     0.3274     3.6536     3.6536     0.0000
 18 C      6.0198     6.0000    -0.0198     3.7960     3.7960    -0.0000
 19 C      6.1137     6.0000    -0.1137     3.6819     3.6819     0.0000
 20 C      5.7499     6.0000     0.2501     3.8406     3.8406     0.0000
 21 C      6.3768     6.0000    -0.3768     3.8752     3.8752    -0.0000
 22 C      5.7001     6.0000     0.2999     3.9574     3.9574    -0.0000
 23 O      8.4268     8.0000    -0.4268     2.0386     2.0386    -0.0000
 24 C      6.3784     6.0000    -0.3784     3.8512     3.8512    -0.0000
 25 N      7.3609     7.0000    -0.3609     3.0294     3.0294    -0.0000
 26 C      5.7811     6.0000     0.2189     3.8474     3.8474     0.0000
 27 C      6.0238     6.0000    -0.0238     3.9275     3.9275    -0.0000
 28 C      5.8838     6.0000     0.1162     3.7995     3.7995    -0.0000
 29 C      5.8953     6.0000     0.1047     3.8947     3.8947     0.0000
 30 C      6.4430     6.0000    -0.4430     3.9423     3.9423    -0.0000
 31 C      6.2418     6.0000    -0.2418     3.9450     3.9450    -0.0000
 32 C      6.4103     6.0000    -0.4103     3.9127     3.9127    -0.0000
 33 N      7.4257     7.0000    -0.4257     3.0514     3.0514     0.0000
 34 C      5.7501     6.0000     0.2499     3.7673     3.7673    -0.0000
 35 C      6.0793     6.0000    -0.0793     3.8318     3.8318     0.0000
 36 C      6.1072     6.0000    -0.1072     3.4563     3.4563    -0.0000
 37 C      5.7555     6.0000     0.2445     3.7494     3.7494     0.0000
 38 C      6.4071     6.0000    -0.4071     3.8353     3.8353     0.0000
 39 C      5.8372     6.0000     0.1628     4.3318     4.3318    -0.0000
 40 O      8.3817     8.0000    -0.3817     2.1395     2.1395    -0.0000
 41 C      5.9356     6.0000     0.0644     3.5231     3.5231     0.0000
 42 C      5.6771     6.0000     0.3229     4.2653     4.2653     0.0000
 43 O      8.4073     8.0000    -0.4073     2.1021     2.1021    -0.0000
 44 O      8.2685     8.0000    -0.2685     2.1270     2.1270     0.0000
 45 C      6.2346     6.0000    -0.2346     3.8523     3.8523    -0.0000
 46 C      6.0688     6.0000    -0.0688     3.8941     3.8941     0.0000
 47 C      6.2589     6.0000    -0.2589     3.8190     3.8190    -0.0000
 48 C      5.9721     6.0000     0.0279     3.7722     3.7722     0.0000
 49 C      6.3909     6.0000    -0.3909     3.9007     3.9007    -0.0000
 50 C      6.1812     6.0000    -0.1812     3.8581     3.8581    -0.0000
 51 C      6.2847     6.0000    -0.2847     3.9000     3.9000    -0.0000
 52 C      6.2271     6.0000    -0.2271     3.9167     3.9167     0.0000
 53 C      5.9529     6.0000     0.0471     3.8225     3.8225     0.0000
 54 C      6.4449     6.0000    -0.4449     3.9107     3.9107    -0.0000
 55 C      6.2261     6.0000    -0.2261     3.9340     3.9340    -0.0000
 56 C      6.2509     6.0000    -0.2509     3.9416     3.9416    -0.0000
 57 C      6.2255     6.0000    -0.2255     3.9352     3.9352     0.0000
 58 C      5.9500     6.0000     0.0500     3.8216     3.8216     0.0000
 59 C      6.4450     6.0000    -0.4450     3.9111     3.9111    -0.0000
 60 C      6.2250     6.0000    -0.2250     3.9294     3.9294    -0.0000
 61 C      6.2524     6.0000    -0.2524     3.9366     3.9366    -0.0000
 62 C      6.2258     6.0000    -0.2258     3.8763     3.8763     0.0000
 63 C      5.9799     6.0000     0.0201     3.8395     3.8395    -0.0000
 64 C      6.4189     6.0000    -0.4189     3.8933     3.8933    -0.0000
 65 C      6.3871     6.0000    -0.3871     3.9009     3.9009    -0.0000
 66 H      0.8498     1.0000     0.1502     0.9729     0.9729     0.0000
 67 H      0.8216     1.0000     0.1784     0.9908     0.9908     0.0000
 68 H      0.8257     1.0000     0.1743     0.9550     0.9550    -0.0000
 69 H      0.8688     1.0000     0.1312     0.9644     0.9644    -0.0000
 70 H      0.8675     1.0000     0.1325     0.9600     0.9600    -0.0000
 71 H      0.8627     1.0000     0.1373     0.9723     0.9723    -0.0000
 72 H      0.8575     1.0000     0.1425     0.9676     0.9676     0.0000
 73 H      0.8590     1.0000     0.1410     0.9686     0.9686    -0.0000
 74 H      0.8571     1.0000     0.1429     0.9718     0.9718    -0.0000
 75 H      0.8533     1.0000     0.1467     0.9836     0.9836     0.0000
 76 H      0.8413     1.0000     0.1587     0.9760     0.9760    -0.0000
 77 H      0.8500     1.0000     0.1500     0.9818     0.9818    -0.0000
 78 H      0.8430     1.0000     0.1570     0.9585     0.9585     0.0000
 79 H      0.8350     1.0000     0.1650     0.9527     0.9527    -0.0000
 80 H      0.8481     1.0000     0.1519     0.9762     0.9762    -0.0000
 81 H      0.8478     1.0000     0.1522     0.9875     0.9875     0.0000
 82 H      0.8484     1.0000     0.1516     0.9669     0.9669    -0.0000
 83 H      0.8463     1.0000     0.1537     0.9677     0.9677     0.0000
 84 H      0.8708     1.0000     0.1292     0.9595     0.9595     0.0000
 85 H      0.8867     1.0000     0.1133     0.9641     0.9641    -0.0000
 86 H      0.8608     1.0000     0.1392     0.9682     0.9682    -0.0000
 87 H      0.8626     1.0000     0.1374     0.9662     0.9662     0.0000
 88 H      0.8619     1.0000     0.1381     0.9727     0.9727     0.0000
 89 H      0.8816     1.0000     0.1184     0.9733     0.9733    -0.0000
 90 H      0.8787     1.0000     0.1213     0.9679     0.9679    -0.0000
 91 H      0.8615     1.0000     0.1385     0.9672     0.9672     0.0000
 92 H      0.8708     1.0000     0.1292     0.9682     0.9682    -0.0000
 93 H      0.8705     1.0000     0.1295     0.9703     0.9703     0.0000
 94 H      0.8511     1.0000     0.1489     0.9806     0.9806     0.0000
 95 H      0.8463     1.0000     0.1537     0.9568     0.9568     0.0000
 96 H      0.8501     1.0000     0.1499     0.9580     0.9580    -0.0000
 97 H      0.8471     1.0000     0.1529     0.9869     0.9869     0.0000
 98 H      0.8431     1.0000     0.1569     0.9665     0.9665    -0.0000
 99 H      0.8524     1.0000     0.1476     0.9648     0.9648     0.0000
100 H      0.8497     1.0000     0.1503     0.9659     0.9659     0.0000
101 H      0.8533     1.0000     0.1467     0.9830     0.9830     0.0000
102 H      0.8336     1.0000     0.1664     0.9538     0.9538     0.0000
103 H      0.8520     1.0000     0.1480     0.9747     0.9747    -0.0000
104 H      0.8592     1.0000     0.1408     0.9646     0.9646    -0.0000
105 H      0.8649     1.0000     0.1351     0.9760     0.9760    -0.0000
106 H      0.8491     1.0000     0.1509     0.9621     0.9621    -0.0000
107 H      0.8756     1.0000     0.1244     0.9790     0.9790    -0.0000
108 H      0.8755     1.0000     0.1245     0.9715     0.9715    -0.0000
109 H      0.8758     1.0000     0.1242     0.9665     0.9665     0.0000
110 H      0.8855     1.0000     0.1145     0.9751     0.9751    -0.0000
111 H      0.8904     1.0000     0.1096     0.9754     0.9754     0.0000
112 H      0.8921     1.0000     0.1079     0.9773     0.9773     0.0000
113 H      0.9248     1.0000     0.0752     0.9717     0.9717    -0.0000
114 H      0.8650     1.0000     0.1350     0.9668     0.9668    -0.0000
115 H      0.8817     1.0000     0.1183     0.9731     0.9731     0.0000
116 H      0.8664     1.0000     0.1336     0.9666     0.9666     0.0000
117 H      0.8932     1.0000     0.1068     0.9751     0.9751    -0.0000
118 H      0.8942     1.0000     0.1058     0.9766     0.9766    -0.0000
119 H      0.8889     1.0000     0.1111     0.9713     0.9713     0.0000
120 H      0.8978     1.0000     0.1022     0.9721     0.9721     0.0000
121 H      0.8937     1.0000     0.1063     0.9751     0.9751     0.0000
122 H      0.8948     1.0000     0.1052     0.9768     0.9768     0.0000
123 H      0.9267     1.0000     0.0733     0.9718     0.9718     0.0000
124 H      0.8654     1.0000     0.1346     0.9664     0.9664    -0.0000
125 H      0.8825     1.0000     0.1175     0.9733     0.9733    -0.0000
126 H      0.8661     1.0000     0.1339     0.9667     0.9667    -0.0000
127 H      0.8939     1.0000     0.1061     0.9748     0.9748     0.0000
128 H      0.8948     1.0000     0.1052     0.9765     0.9765    -0.0000
129 H      0.8855     1.0000     0.1145     0.9680     0.9680    -0.0000
130 H      0.8990     1.0000     0.1010     0.9718     0.9718     0.0000
131 H      0.8947     1.0000     0.1053     0.9741     0.9741     0.0000
132 H      0.8949     1.0000     0.1051     0.9779     0.9779     0.0000
133 H      0.9260     1.0000     0.0740     0.9660     0.9660    -0.0000
134 H      0.8712     1.0000     0.1288     0.9703     0.9703    -0.0000
135 H      0.8831     1.0000     0.1169     0.9746     0.9746     0.0000
136 H      0.8682     1.0000     0.1318     0.9661     0.9661    -0.0000
137 H      0.8717     1.0000     0.1283     0.9704     0.9704    -0.0000
138 H      0.8749     1.0000     0.1251     0.9714     0.9714    -0.0000
139 H      0.8838     1.0000     0.1162     0.9746     0.9746     0.0000

  Mayer bond orders larger than 0.100000
B(  0-Mg,  5-N ) :   0.3958 B(  0-Mg, 16-N ) :   0.5477 B(  0-Mg, 25-N ) :   0.4100 
B(  0-Mg, 33-N ) :   0.5577 B(  1-C ,  6-C ) :   1.3128 B(  1-C , 37-C ) :   1.1833 
B(  1-C , 41-C ) :   0.9266 B(  2-C ,  9-C ) :   1.5015 B(  2-C , 17-C ) :   1.2290 
B(  2-C , 66-H ) :   0.9285 B(  3-C , 20-C ) :   1.3467 B(  3-C , 26-C ) :   1.4002 
B(  3-C , 67-H ) :   0.9226 B(  4-C , 29-C ) :   1.4944 B(  4-C , 34-C ) :   1.2154 
B(  4-C , 68-H ) :   0.9547 B(  5-N ,  6-C ) :   1.1310 B(  5-N ,  9-C ) :   1.2851 
B(  6-C ,  7-C ) :   0.9784 B(  7-C ,  8-C ) :   0.9341 B(  7-C , 11-C ) :   0.8679 
B(  7-C , 69-H ) :   0.9726 B(  8-C ,  9-C ) :   0.9747 B(  8-C , 10-C ) :   0.8659 
B(  8-C , 70-H ) :   0.9801 B( 10-C , 71-H ) :   0.9728 B( 10-C , 72-H ) :   0.9779 
B( 10-C , 73-H ) :   0.9780 B( 11-C , 12-C ) :   0.9859 B( 11-C , 74-H ) :   0.9621 
B( 11-C , 75-H ) :   0.9761 B( 12-C , 13-C ) :   1.0110 B( 12-C , 76-H ) :   0.9165 
B( 12-C , 77-H ) :   0.9473 B( 13-C , 14-O ) :   1.9336 B( 13-C , 15-O ) :   1.2294 
B( 15-O , 46-C ) :   0.8525 B( 16-N , 17-C ) :   1.2113 B( 16-N , 20-C ) :   1.2369 
B( 17-C , 18-C ) :   1.2435 B( 18-C , 19-C ) :   1.6143 B( 18-C , 21-C ) :   0.8576 
B( 19-C , 20-C ) :   1.1922 B( 19-C , 22-C ) :   0.9245 B( 21-C , 78-H ) :   0.9936 
B( 21-C , 79-H ) :   0.9670 B( 21-C , 80-H ) :   0.9701 B( 22-C , 23-O ) :   1.9411 
B( 22-C , 24-C ) :   1.0292 B( 24-C , 81-H ) :   0.9655 B( 24-C , 82-H ) :   0.9625 
B( 24-C , 83-H ) :   0.9387 B( 25-N , 26-C ) :   1.2857 B( 25-N , 29-C ) :   1.1930 
B( 26-C , 27-C ) :   0.9767 B( 27-C , 28-C ) :   0.9483 B( 27-C , 30-C ) :   0.8847 
B( 27-C , 84-H ) :   0.9789 B( 28-C , 29-C ) :   0.9671 B( 28-C , 31-C ) :   0.8987 
B( 28-C , 85-H ) :   0.9634 B( 30-C , 86-H ) :   0.9779 B( 30-C , 87-H ) :   0.9753 
B( 30-C , 88-H ) :   0.9763 B( 31-C , 32-C ) :   0.9795 B( 31-C , 89-H ) :   0.9717 
B( 31-C , 90-H ) :   0.9711 B( 32-C , 91-H ) :   0.9754 B( 32-C , 92-H ) :   0.9731 
B( 32-C , 93-H ) :   0.9714 B( 33-N , 34-C ) :   1.1510 B( 33-N , 37-C ) :   1.2829 
B( 34-C , 35-C ) :   1.3447 B( 35-C , 36-C ) :   1.4963 B( 35-C , 38-C ) :   0.8398 
B( 36-C , 37-C ) :   1.2498 B( 36-C , 39-C ) :   0.9193 B( 36-C , 40-O ) :  -0.1073 
B( 38-C , 94-H ) :   0.9972 B( 38-C , 95-H ) :   0.9765 B( 38-C , 96-H ) :   0.9795 
B( 39-C , 40-O ) :   2.1693 B( 39-C , 41-C ) :   0.9647 B( 41-C , 42-C ) :   0.9278 
B( 41-C , 97-H ) :   0.9209 B( 42-C , 43-O ) :   1.9811 B( 42-C , 44-O ) :   1.2120 
B( 44-O , 45-C ) :   0.8815 B( 45-C , 98-H ) :   0.9664 B( 45-C , 99-H ) :   0.9719 
B( 45-C ,100-H ) :   0.9723 B( 46-C , 47-C ) :   0.9666 B( 46-C ,101-H ) :   0.9811 
B( 46-C ,102-H ) :   0.9717 B( 47-C , 48-C ) :   1.8750 B( 47-C ,103-H ) :   0.9602 
B( 48-C , 49-C ) :   0.9539 B( 48-C , 50-C ) :   0.9445 B( 49-C ,104-H ) :   0.9653 
B( 49-C ,105-H ) :   0.9810 B( 49-C ,106-H ) :   0.9636 B( 50-C , 51-C ) :   0.9473 
B( 50-C ,107-H ) :   0.9850 B( 50-C ,108-H ) :   0.9756 B( 51-C , 52-C ) :   0.9759 
B( 51-C ,109-H ) :   0.9867 B( 51-C ,110-H ) :   0.9662 B( 52-C , 53-C ) :   0.9856 
B( 52-C ,111-H ) :   0.9815 B( 52-C ,112-H ) :   0.9613 B( 53-C , 54-C ) :   0.9184 
B( 53-C , 55-C ) :   0.9868 B( 53-C ,113-H ) :   0.9696 B( 54-C ,114-H ) :   0.9839 
B( 54-C ,115-H ) :   0.9687 B( 54-C ,116-H ) :   0.9838 B( 55-C , 56-C ) :   0.9874 
B( 55-C ,117-H ) :   0.9837 B( 55-C ,118-H ) :   0.9626 B( 56-C , 57-C ) :   0.9882 
B( 56-C ,119-H ) :   0.9823 B( 56-C ,120-H ) :   0.9657 B( 57-C , 58-C ) :   0.9868 
B( 57-C ,121-H ) :   0.9843 B( 57-C ,122-H ) :   0.9618 B( 58-C , 59-C ) :   0.9168 
B( 58-C , 60-C ) :   0.9873 B( 58-C ,123-H ) :   0.9697 B( 59-C ,124-H ) :   0.9839 
B( 59-C ,125-H ) :   0.9688 B( 59-C ,126-H ) :   0.9839 B( 60-C , 61-C ) :   0.9862 
B( 60-C ,127-H ) :   0.9844 B( 60-C ,128-H ) :   0.9613 B( 61-C , 62-C ) :   0.9802 
B( 61-C ,129-H ) :   0.9842 B( 61-C ,130-H ) :   0.9631 B( 62-C , 63-C ) :   0.9761 
B( 62-C ,131-H ) :   0.9760 B( 62-C ,132-H ) :   0.9696 B( 63-C , 64-C ) :   0.9553 
B( 63-C , 65-C ) :   0.9719 B( 63-C ,133-H ) :   0.9714 B( 64-C ,134-H ) :   0.9793 
B( 64-C ,135-H ) :   0.9690 B( 64-C ,136-H ) :   0.9820 B( 65-C ,137-H ) :   0.9837 
B( 65-C ,138-H ) :   0.9812 B( 65-C ,139-H ) :   0.9699 

-------
TIMINGS
-------

Total SCF time: 0 days 3 hours 15 min 45 sec 

Total time                  ....   11745.302 sec
Sum of individual times     ....   11407.997 sec  ( 97.1%)

SCF preparation             ....      19.144 sec  (  0.2%)
Fock matrix formation       ....   11258.587 sec  ( 95.9%)
  Startup                   ....       0.917 sec  (  0.0% of F)
  Split-RI-J                ....     481.303 sec  (  4.3% of F)
  Chain of spheres X        ....   10120.386 sec  ( 89.9% of F)
  XC integration            ....     395.964 sec  (  3.5% of F)
    XC Preparation          ....       0.000 sec  (  0.0% of XC)
    Basis function eval.    ....     120.454 sec  ( 30.4% of XC)
    Density eval.           ....     145.153 sec  ( 36.7% of XC)
    XC-Functional eval.     ....       9.283 sec  (  2.3% of XC)
    XC-Potential eval.      ....     106.660 sec  ( 26.9% of XC)
  CPCM terms                ....     597.159 sec  (  5.3% of F)
Diagonalization             ....       0.000 sec  (  0.0%)
Density matrix formation    ....       9.133 sec  (  0.1%)
Total Energy calculation    ....       4.136 sec  (  0.0%)
Population analysis         ....       3.832 sec  (  0.0%)
Orbital Transformation      ....      11.048 sec  (  0.1%)
Orbital Orthonormalization  ....       0.000 sec  (  0.0%)
DIIS solution               ....      48.921 sec  (  0.4%)
SOSCF solution              ....      45.515 sec  (  0.4%)
Finished LeanSCF after 11757.0 sec

Maximum memory used throughout the entire LEANSCF-calculation: 703.7 MB


           ************************************************************
           *        Program running with 4 parallel MPI-processes     *
           *              working on a common directory               *
           ************************************************************

------------------------------------------------------------------------------
                         ORCA PROPERTY INTEGRAL CALCULATIONS
------------------------------------------------------------------------------

GBWName                                   ... tddft.gbw
Number of atoms                           ...    140
Number of basis functions                 ...   2491
Max core memory                           ...   2200 MB

Dipole integrals                          ... YES
Quadrupole integrals                      ...  NO
Linear momentum integrals                 ... YES
Angular momentum integrals                ... YES
Higher moments length integrals           ...  NO
Higher moments velocity integrals         ...  NO
Kinetic energy integrals                  ...  NO
GIAO right hand sides                     ...  NO
GIAO dipole derivative integrals          ...  NO
SOC integrals                             ...  NO
EPR diamagnetic integrals (GIAO)          ...  NO
EPR gauge integrals                       ...  NO
Field gradient integrals                  ...  NO (   0 nuclei)
Spin-dipole/Fermi contact integrals       ...  NO (   0 nuclei)
Contact density integrals                 ...  NO (   0 nuclei)
Nucleus-orbit integrals                   ...  NO (   0 nuclei)
Geometric perturbations                   ...  NO ( 140 nuclei)

Choice of electric origin   ... Center of mass
Position of electric origin ... ( 74.6342, 99.1885, 41.9481) 
Choice of magnetic origin   ... GIAO
Position of magnetic origin ... (  0.0000,  0.0000,  0.0000) 

Calculating integrals                     ... Electric Dipole (Length)     done (  0.6 sec)
Calculating integrals                     ... Linear Momentum              done (  1.1 sec)
Calculating integrals                     ... Angular Momentum  (ElOri)    done (  1.1 sec)

Property integrals calculated in   2.9 sec

Maximum memory used throughout the entire PROPINT-calculation: 507.9 MB


           ************************************************************
           *        Program running with 4 parallel MPI-processes     *
           *              working on a common directory               *
           ************************************************************
------------------------------------------------------------------------------
                          ORCA TD-DFT CALCULATION
------------------------------------------------------------------------------

Input orbitals are from        ... tddft.gbw
CI-vector output               ... tddft.cis
Solver                         ... FN-2001
Tamm-Dancoff approximation     ... deactivated
RPA-Integral strategy          ... AO-integrals
Integral handling              ... AO integral Direct
Max. core memory used          ... 2200 MB
Reference state                ... RHF
Generation of triplets         ... off
Follow IRoot                   ... off
Number of operators            ... 1
Orbital ranges used for CIS calculation:
 Operator 0:  Orbitals  66...245  to 246...2490
XAS localization array:
 Operator 0:  Orbitals  -1... -1

-------------------
XC-INTEGRATION GRID
-------------------

General Integration Accuracy     IntAcc      ... 3.467
Radial Grid Type                 RadialGrid  ... OptM3 with GC (2021)
Angular Grid (max. ang.)         AngularGrid ... 3 (Lebedev-194)
Angular grid pruning method      GridPruning ... 4 (adaptive)
Weight generation scheme         WeightScheme... mBecke (2022)
Basis function cutoff            BFCut       ... 1.0000e-11
Integration weight cutoff        WCut        ... 1.0000e-14
Partially contracted basis set               ... off
Rotationally invariant grid construction     ... off
Angular grids for H and He will be reduced by one unit

Total number of grid points                  ...   233979
Total number of batches                      ...     3734
Average number of points per batch           ...       62
Average number of grid points per atom       ...     1671

---------------------
COSX-INTEGRATION GRID
---------------------

General Integration Accuracy     IntAcc      ... 3.067
Radial Grid Type                 RadialGrid  ... OptM3 with GC (2021)
Angular Grid (max. ang.)         AngularGrid ... 2 (Lebedev-110)
Angular grid pruning method      GridPruning ... 4 (adaptive)
Weight generation scheme         WeightScheme... mBecke (2022)
Basis function cutoff            BFCut       ... 1.0000e-11
Integration weight cutoff        WCut        ... 1.0000e-14
Partially contracted basis set               ... on
Rotationally invariant grid construction     ... off
Angular grids for H and He will be reduced by one unit

Total number of grid points                  ...    91933
Total number of batches                      ...      797
Average number of points per batch           ...      115
Average number of grid points per atom       ...      657

---------------
TD-DFT XC SETUP
---------------

DFT calculation                         ... on
Name of the grid file                   ... tddft.grid_cis.tmp
RI-approximation                        ... on
Aux-basis dimension                     ... 0
Exchange functional (TD-DFT)            ... WB97X-D3
Correlation functional (TD-DFT)         ... WB97X-D3
Hybrid DFT                              ... on
   Exchange mixing (TD-DFT)             ...  0.196
   GGA exch. scaling (TD-DFT)           ...  0.000
   GGA corr. scaling (TD-DFT)           ...  1.000
Range-Separated Exchange                ... on
   Range Range separation parameter mu  .... 0.250
   Max. amount of RS exchange (TD-DFT)  ...  0.804

Building densities             ... done
Calculating rho(r) on the grid ... done
Building xc-kernel on the grid ... done
                    *** TD-DFT CALCULATION INITIALIZED ***

---------------------------------
    LR-CPCM (non-equilibrium)
---------------------------------

Setting up CPCM data             ... done

-------------------
RPA-DIAGONALIZATION
-------------------

Dimension of the (A+B)(A-B) eigenvalue problem ... 404100
Number of roots to be determined               ...     30
Maximum size of the expansion space            ...    900
Convergence tolerance for the residual         ...    2.500e-07
Convergence tolerance for the energies         ...    2.500e-07
Orthogonality tolerance                        ...    1.000e-14
Constructing the preconditioner                ... o.k.
Building the initial guess                     ... o.k.
Number of trial vectors determined             ...    900


                       ****Iteration    0****
   Time for iteration     :  TOTAL=8755.9 TRAFO=47.7 RIJ=771.8 COSX=5679.3 XC=476.6 CPCM=1761.3
   Size of expansion space: 90
   Lowest Energy          :     0.073431873668
   Maximum Energy change  :     0.240453352213 (vector 29)
   Maximum residual norm  :     0.046360633827

                       ****Iteration    1****
   Time for iteration     :  TOTAL=2916.6 TRAFO=16.3 RIJ=262.0 COSX=1836.4 XC=186.3 CPCM=609.1
   Size of expansion space: 120
   Lowest Energy          :     0.055409646192
   Maximum Energy change  :     0.018022227475 (vector 0)
   Maximum residual norm  :     0.004403674634

                       ****Iteration    2****
   Time for iteration     :  TOTAL=2978.8 TRAFO=16.0 RIJ=280.1 COSX=1889.5 XC=190.5 CPCM=595.5
   Size of expansion space: 150
   Lowest Energy          :     0.053108640927
   Maximum Energy change  :     0.008184051244 (vector 8)
   Maximum residual norm  :     0.009903628204

                       ****Iteration    3****
   Time for iteration     :  TOTAL=3012.7 TRAFO=16.1 RIJ=272.4 COSX=1911.1 XC=186.7 CPCM=619.3
   Size of expansion space: 180
   Lowest Energy          :     0.052811516032
   Maximum Energy change  :     0.006824271542 (vector 26)
   Maximum residual norm  :     0.002704214585

                       ****Iteration    4****
   Time for iteration     :  TOTAL=3047.5 TRAFO=15.9 RIJ=267.6 COSX=1944.1 XC=188.4 CPCM=623.9
   Size of expansion space: 210
   Lowest Energy          :     0.052741005153
   Maximum Energy change  :     0.002693083452 (vector 29)
   Maximum residual norm  :     0.002327855386

                       ****Iteration    5****
   Time for iteration     :  TOTAL=3054.4 TRAFO=16.8 RIJ=277.8 COSX=1943.7 XC=196.6 CPCM=612.1
   Size of expansion space: 240
   Lowest Energy          :     0.052733624254
   Maximum Energy change  :     0.002902879678 (vector 29)
   Maximum residual norm  :     0.000775616742

                       ****Iteration    6****
   Time for iteration     :  TOTAL=2694.0 TRAFO=14.9 RIJ=258.1 COSX=1696.5 XC=175.3 CPCM=542.4
   Size of expansion space: 270
   Lowest Energy          :     0.052731774754
   Maximum Energy change  :     0.000873933120 (vector 28)
   Maximum residual norm  :     0.000586236131

                       ****Iteration    7****
   Time for iteration     :  TOTAL=2698.4 TRAFO=14.8 RIJ=249.6 COSX=1707.8 XC=173.0 CPCM=547.2
   Size of expansion space: 300
   Lowest Energy          :     0.052731430877
   Maximum Energy change  :     0.000343130998 (vector 28)
   Maximum residual norm  :     0.000071173717

                       ****Iteration    8****
   Time for iteration     :  TOTAL=2699.8 TRAFO=14.7 RIJ=249.8 COSX=1712.4 XC=173.1 CPCM=543.0
   Size of expansion space: 330
   Lowest Energy          :     0.052731409738
   Maximum Energy change  :     0.000078809159 (vector 28)
   Maximum residual norm  :     0.000034927296

                       ****Iteration    9****
   Time for iteration     :  TOTAL=2726.4 TRAFO=14.9 RIJ=251.1 COSX=1732.5 XC=177.3 CPCM=544.1
   Size of expansion space: 360
   Lowest Energy          :     0.052731393512
   Maximum Energy change  :     0.000033424210 (vector 28)
   Maximum residual norm  :     0.000014701561

                       ****Iteration   10****
   Time for iteration     :  TOTAL=2731.6 TRAFO=14.9 RIJ=251.7 COSX=1734.9 XC=177.6 CPCM=545.9
   Size of expansion space: 390
   Lowest Energy          :     0.052731392512
   Maximum Energy change  :     0.000011722197 (vector 28)
   Maximum residual norm  :     0.000003125071

                       ****Iteration   11****
   Time for iteration     :  TOTAL=2753.6 TRAFO=14.7 RIJ=252.5 COSX=1754.4 XC=180.9 CPCM=544.5
   Size of expansion space: 420
   Lowest Energy          :     0.052731392339
   Maximum Energy change  :     0.000003213264 (vector 28)
   Maximum residual norm  :     0.000001508634

                       ****Iteration   12****
   Time for iteration     :  TOTAL=2706.3 TRAFO=14.5 RIJ=252.1 COSX=1714.6 XC=173.3 CPCM=545.2
   Size of expansion space: 450
   Lowest Energy          :     0.052731392305
   Maximum Energy change  :     0.000000969949 (vector 28)
   Maximum residual norm  :     0.000000233283

      *** CONVERGENCE OF RESIDUAL NORM REACHED ***

Storing the converged CI vectors               ... tddft.cis1

                 *** DAVIDSON DONE ***

Total time for solving the RPA problem: 43526.049sec

--------------------------------
TD-DFT EXCITED STATES (SINGLETS)
--------------------------------

the weight of the individual excitations are printed if larger than 1.0e-02

STATE  1:  E=   0.052731 au      1.435 eV    11573.2 cm**-1 <S**2> =   0.000000 Mult 1
   244a -> 247a  :     0.018083 
   245a -> 246a  :     0.958817 

STATE  2:  E=   0.078896 au      2.147 eV    17315.8 cm**-1 <S**2> =   0.000000 Mult 1
   244a -> 246a  :     0.842857 
   245a -> 247a  :     0.122437 

STATE  3:  E=   0.127221 au      3.462 eV    27921.8 cm**-1 <S**2> =   0.000000 Mult 1
   241a -> 246a  :     0.070862 
   243a -> 246a  :     0.021466 
   244a -> 246a  :     0.097616 
   245a -> 247a  :     0.767915 

STATE  4:  E=   0.134215 au      3.652 eV    29456.8 cm**-1 <S**2> =   0.000000 Mult 1
   240a -> 246a  :     0.051659 
   241a -> 246a  :     0.221791 
   241a -> 248a  :     0.012538 
   242a -> 246a  :     0.080299 
   243a -> 246a  :     0.505513 
   244a -> 246a  :     0.026651 
   245a -> 247a  :     0.060485 

STATE  5:  E=   0.143639 au      3.909 eV    31525.2 cm**-1 <S**2> =   0.000000 Mult 1
   238a -> 246a  :     0.378789 
   238a -> 247a  :     0.049765 
   238a -> 248a  :     0.140399 
   238a -> 249a  :     0.139495 
   239a -> 246a  :     0.025266 
   240a -> 246a  :     0.042881 
   244a -> 247a  :     0.027611 
   245a -> 248a  :     0.101289 

STATE  6:  E=   0.144850 au      3.942 eV    31790.9 cm**-1 <S**2> =   0.000000 Mult 1
   238a -> 246a  :     0.068440 
   238a -> 248a  :     0.027804 
   238a -> 249a  :     0.020790 
   240a -> 246a  :     0.028508 
   241a -> 246a  :     0.194881 
   242a -> 246a  :     0.025373 
   243a -> 246a  :     0.108326 
   244a -> 247a  :     0.183998 
   245a -> 247a  :     0.011222 
   245a -> 248a  :     0.208795 
   245a -> 249a  :     0.038790 

STATE  7:  E=   0.145804 au      3.968 eV    32000.3 cm**-1 <S**2> =   0.000000 Mult 1
   237a -> 246a  :     0.012773 
   240a -> 246a  :     0.054192 
   241a -> 246a  :     0.269266 
   242a -> 246a  :     0.039196 
   243a -> 246a  :     0.163924 
   244a -> 247a  :     0.049428 
   245a -> 248a  :     0.293559 
   245a -> 249a  :     0.036025 

STATE  8:  E=   0.149682 au      4.073 eV    32851.4 cm**-1 <S**2> =   0.000000 Mult 1
   238a -> 246a  :     0.010336 
   238a -> 248a  :     0.014952 
   239a -> 246a  :     0.451029 
   239a -> 248a  :     0.273804 
   239a -> 249a  :     0.098835 
   240a -> 246a  :     0.050526 
   240a -> 248a  :     0.014874 

STATE  9:  E=   0.151041 au      4.110 eV    33149.7 cm**-1 <S**2> =   0.000000 Mult 1
   237a -> 246a  :     0.024480 
   241a -> 246a  :     0.012943 
   244a -> 247a  :     0.632024 
   245a -> 246a  :     0.018116 
   245a -> 248a  :     0.242213 

STATE 10:  E=   0.161602 au      4.397 eV    35467.5 cm**-1 <S**2> =   0.000000 Mult 1
   235a -> 246a  :     0.253737 
   238a -> 246a  :     0.023725 
   239a -> 246a  :     0.024920 
   239a -> 248a  :     0.014822 
   240a -> 246a  :     0.458190 
   241a -> 246a  :     0.105712 
   244a -> 248a  :     0.018876 

STATE 11:  E=   0.165160 au      4.494 eV    36248.4 cm**-1 <S**2> =   0.000000 Mult 1
   220a -> 246a  :     0.010970 
   235a -> 246a  :     0.576515 
   238a -> 246a  :     0.025987 
   239a -> 246a  :     0.018898 
   240a -> 246a  :     0.179050 
   241a -> 246a  :     0.033412 
   244a -> 248a  :     0.030948 
   245a -> 249a  :     0.030464 

STATE 12:  E=   0.168391 au      4.582 eV    36957.5 cm**-1 <S**2> =   0.000000 Mult 1
   235a -> 246a  :     0.014894 
   237a -> 246a  :     0.046502 
   237a -> 248a  :     0.015240 
   240a -> 246a  :     0.016851 
   244a -> 247a  :     0.033002 
   245a -> 248a  :     0.029540 
   245a -> 249a  :     0.767477 

STATE 13:  E=   0.174813 au      4.757 eV    38366.9 cm**-1 <S**2> =   0.000000 Mult 1
   237a -> 246a  :     0.143337 
   237a -> 247a  :     0.011150 
   240a -> 246a  :     0.013588 
   240a -> 247a  :     0.011450 
   240a -> 249a  :     0.014657 
   243a -> 249a  :     0.014813 
   244a -> 248a  :     0.629392 
   245a -> 249a  :     0.012214 
   245a -> 250a  :     0.012815 
   245a -> 253a  :     0.016907 
   245a -> 255a  :     0.018708 

STATE 14:  E=   0.176487 au      4.802 eV    38734.4 cm**-1 <S**2> =   0.000000 Mult 1
   237a -> 246a  :     0.668108 
   238a -> 246a  :     0.014557 
   240a -> 246a  :     0.010068 
   240a -> 249a  :     0.011572 
   244a -> 248a  :     0.160820 
   245a -> 248a  :     0.047708 
   245a -> 249a  :     0.024818 

STATE 15:  E=   0.177514 au      4.830 eV    38959.8 cm**-1 <S**2> =   0.000000 Mult 1
   245a -> 250a  :     0.913626 
   245a -> 251a  :     0.011813 
   245a -> 252a  :     0.011202 

STATE 16:  E=   0.188334 au      5.125 eV    41334.6 cm**-1 <S**2> =   0.000000 Mult 1
   216a -> 246a  :     0.015081 
   218a -> 246a  :     0.023979 
   222a -> 246a  :     0.017676 
   223a -> 246a  :     0.037824 
   226a -> 246a  :     0.011850 
   231a -> 246a  :     0.720485 
   231a -> 249a  :     0.016261 
   234a -> 246a  :     0.016556 
   235a -> 246a  :     0.012940 
   235a -> 247a  :     0.011481 
   235a -> 253a  :     0.010459 

STATE 17:  E=   0.190863 au      5.194 eV    41889.5 cm**-1 <S**2> =   0.000000 Mult 1
   220a -> 246a  :     0.021248 
   222a -> 246a  :     0.016559 
   223a -> 246a  :     0.096228 
   238a -> 246a  :     0.048613 
   238a -> 249a  :     0.023717 
   239a -> 246a  :     0.021338 
   239a -> 249a  :     0.010240 
   240a -> 247a  :     0.011002 
   240a -> 248a  :     0.011392 
   241a -> 248a  :     0.010358 
   244a -> 249a  :     0.249294 
   245a -> 252a  :     0.034155 
   245a -> 253a  :     0.215945 
   245a -> 254a  :     0.098194 

STATE 18:  E=   0.191847 au      5.220 eV    42105.5 cm**-1 <S**2> =   0.000000 Mult 1
   220a -> 246a  :     0.045666 
   222a -> 246a  :     0.035785 
   223a -> 246a  :     0.213870 
   231a -> 246a  :     0.020266 
   238a -> 246a  :     0.060293 
   238a -> 247a  :     0.016857 
   238a -> 248a  :     0.021944 
   238a -> 249a  :     0.034244 
   239a -> 246a  :     0.031213 
   239a -> 249a  :     0.021565 
   245a -> 252a  :     0.020621 
   245a -> 253a  :     0.225543 
   245a -> 254a  :     0.107861 

STATE 19:  E=   0.193023 au      5.252 eV    42363.7 cm**-1 <S**2> =   0.000000 Mult 1
   220a -> 246a  :     0.010775 
   223a -> 246a  :     0.037906 
   240a -> 248a  :     0.025284 
   244a -> 249a  :     0.571984 
   245a -> 253a  :     0.144125 
   245a -> 254a  :     0.069149 

STATE 20:  E=   0.198146 au      5.392 eV    43487.9 cm**-1 <S**2> =   0.000000 Mult 1
   220a -> 246a  :     0.033879 
   222a -> 246a  :     0.029700 
   223a -> 246a  :     0.201268 
   237a -> 246a  :     0.010698 
   238a -> 246a  :     0.286634 
   238a -> 247a  :     0.062982 
   238a -> 248a  :     0.040613 
   238a -> 249a  :     0.149320 
   238a -> 255a  :     0.013101 
   238a -> 260a  :     0.013342 
   239a -> 248a  :     0.022030 

STATE 21:  E=   0.202131 au      5.500 eV    44362.6 cm**-1 <S**2> =   0.000000 Mult 1
   244a -> 250a  :     0.850921 
   244a -> 251a  :     0.010217 
   245a -> 252a  :     0.029771 

STATE 22:  E=   0.204327 au      5.560 eV    44844.5 cm**-1 <S**2> =   0.000000 Mult 1
   237a -> 247a  :     0.018169 
   240a -> 249a  :     0.013864 
   241a -> 247a  :     0.028521 
   241a -> 248a  :     0.019536 
   243a -> 247a  :     0.020795 
   243a -> 248a  :     0.011413 
   243a -> 249a  :     0.011116 
   245a -> 252a  :     0.010734 
   245a -> 253a  :     0.014926 
   245a -> 254a  :     0.070415 
   245a -> 255a  :     0.645042 
   245a -> 256a  :     0.026260 
   245a -> 258a  :     0.010802 

STATE 23:  E=   0.204409 au      5.562 eV    44862.7 cm**-1 <S**2> =   0.000000 Mult 1
   237a -> 252a  :     0.013327 
   244a -> 250a  :     0.026282 
   244a -> 252a  :     0.045718 
   245a -> 250a  :     0.010317 
   245a -> 252a  :     0.745389 
   245a -> 253a  :     0.040243 

STATE 24:  E=   0.208708 au      5.679 eV    45806.1 cm**-1 <S**2> =   0.000000 Mult 1
   226a -> 246a  :     0.141266 
   233a -> 246a  :     0.068863 
   233a -> 252a  :     0.010175 
   234a -> 246a  :     0.013187 
   237a -> 248a  :     0.012117 
   240a -> 247a  :     0.013330 
   240a -> 248a  :     0.010162 
   241a -> 247a  :     0.022393 
   241a -> 249a  :     0.048869 
   242a -> 246a  :     0.425390 
   242a -> 248a  :     0.012337 
   243a -> 246a  :     0.061895 
   243a -> 248a  :     0.059229 

STATE 25:  E=   0.209361 au      5.697 eV    45949.4 cm**-1 <S**2> =   0.000000 Mult 1
   216a -> 246a  :     0.012354 
   220a -> 246a  :     0.014717 
   223a -> 246a  :     0.039902 
   226a -> 246a  :     0.031863 
   235a -> 246a  :     0.021313 
   239a -> 246a  :     0.279435 
   239a -> 248a  :     0.121761 
   239a -> 249a  :     0.121475 
   239a -> 255a  :     0.012049 
   240a -> 246a  :     0.010949 
   240a -> 248a  :     0.024673 
   241a -> 247a  :     0.013927 
   241a -> 249a  :     0.026262 
   242a -> 246a  :     0.052756 
   243a -> 246a  :     0.012485 
   243a -> 247a  :     0.018612 
   243a -> 248a  :     0.019247 

STATE 26:  E=   0.209850 au      5.710 eV    46056.9 cm**-1 <S**2> =   0.000000 Mult 1
   226a -> 246a  :     0.016127 
   233a -> 246a  :     0.041289 
   239a -> 246a  :     0.076180 
   239a -> 248a  :     0.036419 
   239a -> 249a  :     0.022257 
   240a -> 247a  :     0.019064 
   240a -> 248a  :     0.011726 
   240a -> 249a  :     0.023753 
   241a -> 247a  :     0.063793 
   241a -> 249a  :     0.066523 
   242a -> 246a  :     0.266562 
   242a -> 248a  :     0.013533 
   243a -> 246a  :     0.067439 
   243a -> 247a  :     0.055139 
   243a -> 248a  :     0.059970 

STATE 27:  E=   0.210843 au      5.737 eV    46274.7 cm**-1 <S**2> =   0.000000 Mult 1
   226a -> 246a  :     0.102708 
   233a -> 246a  :     0.054944 
   241a -> 247a  :     0.029805 
   242a -> 246a  :     0.060424 
   242a -> 247a  :     0.045467 
   243a -> 247a  :     0.283399 
   244a -> 252a  :     0.016201 
   244a -> 253a  :     0.182682 
   244a -> 254a  :     0.065875 
   245a -> 255a  :     0.016122 

STATE 28:  E=   0.212075 au      5.771 eV    46545.1 cm**-1 <S**2> =   0.000000 Mult 1
   240a -> 247a  :     0.153133 
   240a -> 248a  :     0.012813 
   240a -> 249a  :     0.081205 
   241a -> 247a  :     0.082751 
   241a -> 248a  :     0.191267 
   242a -> 249a  :     0.026579 
   243a -> 248a  :     0.016468 
   243a -> 249a  :     0.131667 
   244a -> 253a  :     0.039587 
   244a -> 254a  :     0.019110 
   244a -> 255a  :     0.010354 
   245a -> 255a  :     0.071813 

STATE 29:  E=   0.215081 au      5.853 eV    47204.8 cm**-1 <S**2> =   0.000000 Mult 1
   226a -> 246a  :     0.211227 
   233a -> 246a  :     0.110016 
   233a -> 252a  :     0.010923 
   237a -> 246a  :     0.010910 
   240a -> 247a  :     0.013016 
   241a -> 247a  :     0.013260 
   241a -> 248a  :     0.043982 
   241a -> 249a  :     0.046997 
   242a -> 248a  :     0.031100 
   243a -> 247a  :     0.010834 
   243a -> 248a  :     0.136803 
   243a -> 249a  :     0.028552 
   244a -> 253a  :     0.113712 
   244a -> 254a  :     0.058034 

STATE 30:  E=   0.217109 au      5.908 eV    47650.0 cm**-1 <S**2> =   0.000000 Mult 1
   226a -> 246a  :     0.014998 
   241a -> 247a  :     0.125185 
   242a -> 247a  :     0.062751 
   243a -> 247a  :     0.281583 
   243a -> 248a  :     0.020121 
   243a -> 255a  :     0.011405 
   244a -> 253a  :     0.158381 
   244a -> 254a  :     0.129242 
   244a -> 255a  :     0.033686 
   245a -> 252a  :     0.011405 
   245a -> 254a  :     0.010897 


-----------------------------
 TD-DFT-EXCITATION SPECTRA
-----------------------------

Center of mass = ( 74.6342, 99.1885, 41.9481)
Generating RPA transition densities
 done

----------------------------------------------------------------------------------------------------
                     ABSORPTION SPECTRUM VIA TRANSITION ELECTRIC DIPOLE MOMENTS    
----------------------------------------------------------------------------------------------------
     Transition      Energy     Energy  Wavelength fosc(D2)      D2        DX        DY        DZ   
                      (eV)      (cm-1)    (nm)                 (au**2)    (au)      (au)      (au)  
----------------------------------------------------------------------------------------------------
  0-1A  ->  1-1A    1.434894   11573.2   864.1   0.546093000  15.53419   3.47294   1.65318  -0.86018
  0-1A  ->  2-1A    2.146879   17315.8   577.5   0.183148191   3.48206  -1.09216   1.44270  -0.45593
  0-1A  ->  3-1A    3.461860   27921.8   358.1   0.818133905   9.64621  -1.80928   2.42144  -0.71369
  0-1A  ->  4-1A    3.652172   29456.8   339.5   0.156608282   1.75027  -0.91757   0.91436  -0.26884
  0-1A  ->  5-1A    3.908622   31525.2   317.2   0.050702478   0.52948   0.65592   0.30960  -0.05833
  0-1A  ->  6-1A    3.941574   31790.9   314.6   0.499928696   5.17703  -2.27490  -0.00966   0.04209
  0-1A  ->  7-1A    3.967526   32000.3   312.5   0.184170795   1.89471  -0.34698  -1.27419   0.38827
  0-1A  ->  8-1A    4.073059   32851.4   304.4   0.000529503   0.00531   0.03978   0.04600   0.04010
  0-1A  ->  9-1A    4.110034   33149.7   301.7   0.714334802   7.09412   2.13649   1.43678  -0.68203
  0-1A  -> 10-1A    4.397403   35467.5   281.9   0.004325764   0.04015  -0.17423  -0.08471   0.05121
  0-1A  -> 11-1A    4.494229   36248.4   275.9   0.005369272   0.04876   0.21870   0.03037   0.00340
  0-1A  -> 12-1A    4.582150   36957.5   270.6   0.157806318   1.40571  -0.80248   0.81543  -0.31114
  0-1A  -> 13-1A    4.756892   38366.9   260.6   0.030441394   0.26121  -0.07121  -0.47970   0.16133
  0-1A  -> 14-1A    4.802451   38734.4   258.2   0.002978241   0.02531   0.04777  -0.12949   0.07913
  0-1A  -> 15-1A    4.830398   38959.8   256.7   0.001259753   0.01064  -0.07224  -0.05522   0.04875
  0-1A  -> 16-1A    5.124838   41334.6   241.9   0.003428301   0.02730   0.13805   0.08700  -0.02607
  0-1A  -> 17-1A    5.193639   41889.5   238.7   0.036979811   0.29063   0.35149  -0.40191   0.07446
  0-1A  -> 18-1A    5.220413   42105.5   237.5   0.000845716   0.00661   0.00393   0.06642  -0.04675
  0-1A  -> 19-1A    5.252425   42363.7   236.1   0.123358319   0.95863   0.74497  -0.61441   0.16171
  0-1A  -> 20-1A    5.391818   43487.9   229.9   0.000949336   0.00719  -0.02973   0.06496  -0.04564
  0-1A  -> 21-1A    5.500262   44362.6   225.4   0.001111814   0.00825   0.02039  -0.04015   0.07889
  0-1A  -> 22-1A    5.560015   44844.5   223.0   0.002288438   0.01680  -0.05734   0.10575  -0.04827
  0-1A  -> 23-1A    5.562261   44862.7   222.9   0.011233823   0.08244   0.22374   0.17885  -0.01974
  0-1A  -> 24-1A    5.679236   45806.1   218.3   0.189359322   1.36094  -1.01451   0.53176  -0.22123
  0-1A  -> 25-1A    5.697001   45949.4   217.6   0.083367410   0.59730  -0.61742   0.41367  -0.21208
  0-1A  -> 26-1A    5.710321   46056.9   217.1   0.220480989   1.57599   1.07002  -0.61913   0.21847
  0-1A  -> 27-1A    5.737326   46274.7   216.1   0.000690368   0.00491  -0.01514  -0.05645   0.03867
  0-1A  -> 28-1A    5.770862   46545.1   214.8   0.034485592   0.24392  -0.45518  -0.14759   0.12225
  0-1A  -> 29-1A    5.852652   47204.8   211.8   0.184777207   1.28866   0.88662  -0.69666   0.13124
  0-1A  -> 30-1A    5.907848   47650.0   209.9   0.070471959   0.48689  -0.69143  -0.05246   0.07788

----------------------------------------------------------------------------------------------------
                     ABSORPTION SPECTRUM VIA TRANSITION VELOCITY DIPOLE MOMENTS    
----------------------------------------------------------------------------------------------------
     Transition      Energy     Energy  Wavelength fosc(P2)      P2        PX        PY        PZ   
                      (eV)      (cm-1)    (nm)                 (au**2)    (au)      (au)      (au)  
----------------------------------------------------------------------------------------------------
  0-1A  ->  1-1A    1.434894   11573.2   864.1   0.544673729   0.04308  -0.18289  -0.08700   0.04542
  0-1A  ->  2-1A    2.146879   17315.8   577.5   0.182313801   0.02158   0.08580  -0.11368   0.03593
  0-1A  ->  3-1A    3.461860   27921.8   358.1   0.816260397   0.15577   0.22995  -0.30773   0.09050
  0-1A  ->  4-1A    3.652172   29456.8   339.5   0.155885621   0.03138   0.12290  -0.12237   0.03612
  0-1A  ->  5-1A    3.908622   31525.2   317.2   0.049552645   0.01068  -0.09334  -0.04335   0.00919
  0-1A  ->  6-1A    3.941574   31790.9   314.6   0.496059642   0.10778   0.32824   0.00190  -0.00597
  0-1A  ->  7-1A    3.967526   32000.3   312.5   0.185045053   0.04047   0.05060   0.18627  -0.05667
  0-1A  ->  8-1A    4.073059   32851.4   304.4   0.000507607   0.00011  -0.00598  -0.00688  -0.00555
  0-1A  ->  9-1A    4.110034   33149.7   301.7   0.712521664   0.16143  -0.32229  -0.21665   0.10306
  0-1A  -> 10-1A    4.397403   35467.5   281.9   0.004279627   0.00104   0.02808   0.01349  -0.00818
  0-1A  -> 11-1A    4.494229   36248.4   275.9   0.005365030   0.00133  -0.03607  -0.00527  -0.00046
  0-1A  -> 12-1A    4.582150   36957.5   270.6   0.155378629   0.03925   0.13454  -0.13578   0.05204
  0-1A  -> 13-1A    4.756892   38366.9   260.6   0.030342686   0.00796   0.01301   0.08369  -0.02800
  0-1A  -> 14-1A    4.802451   38734.4   258.2   0.002968031   0.00079  -0.00873   0.02260  -0.01411
  0-1A  -> 15-1A    4.830398   38959.8   256.7   0.001304658   0.00035   0.01244   0.01048  -0.00910
  0-1A  -> 16-1A    5.124838   41334.6   241.9   0.003439868   0.00097  -0.02600  -0.01683   0.00351
  0-1A  -> 17-1A    5.193639   41889.5   238.7   0.037086597   0.01062  -0.06790   0.07619  -0.01425
  0-1A  -> 18-1A    5.220413   42105.5   237.5   0.000822228   0.00024  -0.00039  -0.01270   0.00867
  0-1A  -> 19-1A    5.252425   42363.7   236.1   0.123798310   0.03584  -0.14392   0.11891  -0.03146
  0-1A  -> 20-1A    5.391818   43487.9   229.9   0.000964402   0.00029   0.00561  -0.01325   0.00893
  0-1A  -> 21-1A    5.500262   44362.6   225.4   0.001152507   0.00035  -0.00446   0.00782  -0.01638
  0-1A  -> 22-1A    5.560015   44844.5   223.0   0.002286195   0.00070   0.01114  -0.02200   0.00962
  0-1A  -> 23-1A    5.562261   44862.7   222.9   0.011263604   0.00345  -0.04567  -0.03679   0.00378
  0-1A  -> 24-1A    5.679236   45806.1   218.3   0.187698319   0.05876   0.21026  -0.11141   0.04624
  0-1A  -> 25-1A    5.697001   45949.4   217.6   0.082866781   0.02602   0.12860  -0.08677   0.04425
  0-1A  -> 26-1A    5.710321   46056.9   217.1   0.218032625   0.06863  -0.22266   0.13015  -0.04602
  0-1A  -> 27-1A    5.737326   46274.7   216.1   0.000703283   0.00022   0.00355   0.01207  -0.00800
  0-1A  -> 28-1A    5.770862   46545.1   214.8   0.034057361   0.01083   0.09585   0.03148  -0.02562
  0-1A  -> 29-1A    5.852652   47204.8   211.8   0.182544432   0.05889  -0.18937   0.14914  -0.02813
  0-1A  -> 30-1A    5.907848   47650.0   209.9   0.069758436   0.02272   0.14928   0.01187  -0.01712

------------------------------------------------------------------------------------------
                     CD SPECTRUM VIA TRANSITION ELECTRIC DIPOLE MOMENTS    
------------------------------------------------------------------------------------------
     Transition      Energy     Energy  Wavelength    R        MX        MY        MZ   
                      (eV)      (cm-1)    (nm)   (1e40*cgs)   (au)      (au)      (au)  
------------------------------------------------------------------------------------------
  0-1A  ->  1-1A    1.434894   11573.2   864.1   10.09347  -0.18371  -0.12864  -0.96407
  0-1A  ->  2-1A    2.146879   17315.8   577.5    3.51781  -0.14445  -0.18326  -0.21749
  0-1A  ->  3-1A    3.461860   27921.8   358.1   13.13711  -0.33535  -0.07238   0.64363
  0-1A  ->  4-1A    3.652172   29456.8   339.5    2.76772  -0.15991  -0.20950  -0.14492
  0-1A  ->  5-1A    3.908622   31525.2   317.2   14.73288  -0.19959   0.16759  -0.81912
  0-1A  ->  6-1A    3.941574   31790.9   314.6  -28.35253   0.00081   0.29297   1.53958
  0-1A  ->  7-1A    3.967526   32000.3   312.5   82.03427   0.22468   0.32363   0.81469
  0-1A  ->  8-1A    4.073059   32851.4   304.4   11.33233  -0.42621  -0.09725  -0.06506
  0-1A  ->  9-1A    4.110034   33149.7   301.7  -53.12177  -0.38769  -0.17030  -1.73841
  0-1A  -> 10-1A    4.397403   35467.5   281.9    2.74624   0.14328   0.29832   0.86715
  0-1A  -> 11-1A    4.494229   36248.4   275.9  -16.59205   0.18481  -0.10388  -0.60937
  0-1A  -> 12-1A    4.582150   36957.5   270.6   11.71262  -0.18156  -0.17654   0.08545
  0-1A  -> 13-1A    4.756892   38366.9   260.6    3.00300   0.09759  -0.27314  -0.80855
  0-1A  -> 14-1A    4.802451   38734.4   258.2   -3.68288   0.06445  -0.04079  -0.00693
  0-1A  -> 15-1A    4.830398   38959.8   256.7    1.62060   0.05327   0.00263   0.01141
  0-1A  -> 16-1A    5.124838   41334.6   241.9   -0.29173   0.00532  -0.04837  -0.15697
  0-1A  -> 17-1A    5.193639   41889.5   238.7  -38.43995   0.12047  -0.20229  -0.56561
  0-1A  -> 18-1A    5.220413   42105.5   237.5    9.36001   0.08541   0.06413   0.52293
  0-1A  -> 19-1A    5.252425   42363.7   236.1   35.65993   0.08248   0.21650  -0.02516
  0-1A  -> 20-1A    5.391818   43487.9   229.9   10.81652  -0.00836  -0.27716   0.11366
  0-1A  -> 21-1A    5.500262   44362.6   225.4   -0.95447   0.08357  -0.04126  -0.01694
  0-1A  -> 22-1A    5.560015   44844.5   223.0    0.56775   0.03163   0.09355   0.19234
  0-1A  -> 23-1A    5.562261   44862.7   222.9   -8.14284   0.03983   0.02983  -0.15334
  0-1A  -> 24-1A    5.679236   45806.1   218.3   14.54677  -0.15066  -0.01468   0.79506
  0-1A  -> 25-1A    5.697001   45949.4   217.6   71.08594   0.13748   0.06695   0.44130
  0-1A  -> 26-1A    5.710321   46056.9   217.1  -30.37025   0.26577   0.11841  -0.67126
  0-1A  -> 27-1A    5.737326   46274.7   216.1   -1.81300   0.07106   0.06942   0.22859
  0-1A  -> 28-1A    5.770862   46545.1   214.8   22.19891   0.09135  -0.33461  -0.44900
  0-1A  -> 29-1A    5.852652   47204.8   211.8  -22.56847   0.08944  -0.12026  -0.87792
  0-1A  -> 30-1A    5.907848   47650.0   209.9    9.46081   0.08892   0.00352   0.53410

------------------------------------------------------------------------------------------
                     CD SPECTRUM VIA TRANSITION VELOCITY DIPOLE MOMENTS    
------------------------------------------------------------------------------------------
     Transition      Energy     Energy  Wavelength    R        MX        MY        MZ   
                      (eV)      (cm-1)    (nm)   (1e40*cgs)   (au)      (au)      (au)  
------------------------------------------------------------------------------------------
  0-1A  ->  1-1A    1.434894   11573.2   864.1    8.96613  -0.18371  -0.12864  -0.96407
  0-1A  ->  2-1A    2.146879   17315.8   577.5    3.73205  -0.14445  -0.18326  -0.21749
  0-1A  ->  3-1A    3.461860   27921.8   358.1   12.61481  -0.33535  -0.07238   0.64363
  0-1A  ->  4-1A    3.652172   29456.8   339.5    2.63676  -0.15991  -0.20950  -0.14492
  0-1A  ->  5-1A    3.908622   31525.2   317.2   12.59167  -0.19959   0.16759  -0.81912
  0-1A  ->  6-1A    3.941574   31790.9   314.6  -27.26458   0.00081   0.29297   1.53958
  0-1A  ->  7-1A    3.967526   32000.3   312.5   82.38761   0.22468   0.32363   0.81469
  0-1A  ->  8-1A    4.073059   32851.4   304.4   11.27816  -0.42621  -0.09725  -0.06506
  0-1A  ->  9-1A    4.110034   33149.7   301.7  -54.03409  -0.38769  -0.17030  -1.73841
  0-1A  -> 10-1A    4.397403   35467.5   281.9    2.78930   0.14328   0.29832   0.86715
  0-1A  -> 11-1A    4.494229   36248.4   275.9  -16.66220   0.18481  -0.10388  -0.60937
  0-1A  -> 12-1A    4.582150   36957.5   270.6   11.17498  -0.18156  -0.17654   0.08545
  0-1A  -> 13-1A    4.756892   38366.9   260.6    2.82454   0.09759  -0.27314  -0.80855
  0-1A  -> 14-1A    4.802451   38734.4   258.2   -3.70364   0.06445  -0.04079  -0.00693
  0-1A  -> 15-1A    4.830398   38959.8   256.7    1.55822   0.05327   0.00263   0.01141
  0-1A  -> 16-1A    5.124838   41334.6   241.9    0.31142   0.00532  -0.04837  -0.15697
  0-1A  -> 17-1A    5.193639   41889.5   238.7  -38.36896   0.12047  -0.20229  -0.56561
  0-1A  -> 18-1A    5.220413   42105.5   237.5    9.05313   0.08541   0.06413   0.52293
  0-1A  -> 19-1A    5.252425   42363.7   236.1   35.81641   0.08248   0.21650  -0.02516
  0-1A  -> 20-1A    5.391818   43487.9   229.9   11.03974  -0.00836  -0.27716   0.11366
  0-1A  -> 21-1A    5.500262   44362.6   225.4   -0.97545   0.08357  -0.04126  -0.01694
  0-1A  -> 22-1A    5.560015   44844.5   223.0    0.33250   0.03163   0.09355   0.19234
  0-1A  -> 23-1A    5.562261   44862.7   222.9   -8.06252   0.03983   0.02983  -0.15334
  0-1A  -> 24-1A    5.679236   45806.1   218.3   15.18765  -0.15066  -0.01468   0.79506
  0-1A  -> 25-1A    5.697001   45949.4   217.6   70.70283   0.13748   0.06695   0.44130
  0-1A  -> 26-1A    5.710321   46056.9   217.1  -28.92207   0.26577   0.11841  -0.67126
  0-1A  -> 27-1A    5.737326   46274.7   216.1   -1.65158   0.07106   0.06942   0.22859
  0-1A  -> 28-1A    5.770862   46545.1   214.8   21.62438   0.09135  -0.33461  -0.44900
  0-1A  -> 29-1A    5.852652   47204.8   211.8  -22.31401   0.08944  -0.12026  -0.87792
  0-1A  -> 30-1A    5.907848   47650.0   209.9    9.06301   0.08892   0.00352   0.53410

Total run time:    43605.430 sec

           *** ORCA-CIS/TD-DFT FINISHED WITHOUT ERROR ***
-----------------------
CIS/TD-DFT TOTAL ENERGY
-----------------------

    E(SCF)  =  -3011.304531267 Eh
    DE(CIS) =      0.052731392 Eh (Root  1)
    ----------------------------- ---------
    E(tot)  =  -3011.251799875 Eh


Maximum memory used throughout the entire CIS-calculation: 1822.5 MB
=> NOW LEAVING ORCA_CIS


-------------------------------------------------------------------------------
                          DFT DISPERSION CORRECTION                            
                                                                               
                              DFTD3 V3.1  Rev 1                                
                              USING zero damping                               
-------------------------------------------------------------------------------
The omegaB97X-D3 functional is recognized. Fit by Chai et al.
Active option DFTDOPT                   ...         3   

molecular C6(AA) [au] = 181479.333856 


            DFT-D V3
 parameters
 s6 scaling factor         :     1.0000 
 rs6 scaling factor        :     1.2810 
 s8 scaling factor         :     1.0000 
 rs8 scaling factor        :     1.0940 
 Damping factor alpha6     :    14.0000 
 Damping factor alpha8     :    16.0000 
 ad hoc parameters k1-k3   :    16.0000     1.3333    -4.0000 

 Edisp/kcal,au: -48.880985593013  -0.077896800605 
 E6   /kcal   : -23.048041234 
 E8   /kcal   : -25.832944359 
 % E8         :  52.848656887 

-------------------------   ----------------
Dispersion correction           -0.077896801
-------------------------   ----------------


-------------------------   --------------------
FINAL SINGLE POINT ENERGY     -3011.329696675767
-------------------------   --------------------



           ************************************************************
           *        Program running with 4 parallel MPI-processes     *
           *              working on a common directory               *
           ************************************************************

------------------------------------------------------------------------------
                              ORCA PROPERTY CALCULATIONS
------------------------------------------------------------------------------

GBWName                                 ... tddft.gbw
Number of atoms                         ...    140
Number of basis functions               ...   2491
Max core memory                         ...   2200 MB

Electric properties:
Dipole moment                           ... YES
Quadrupole moment                       ...  NO
Static polarizability (Dipole/Dipole)   ...  NO
Static polarizability (Dipole/Quad.)    ...  NO
Static polarizability (Quad./Quad.)     ...  NO
Static polarizability (Velocity)        ...  NO
Static hyperpolarizability              ...  NO

Atomic electric properties:
Dipole moment                           ...  NO
Quadrupole moment                       ...  NO
Static polarizability                   ...  NO

Choice of electric origin               ... Center of mass
Position of electric origin             ...    74.634185    99.188498    41.948136

General magnetic properties:
Magnetizability                         ...  NO

EPR properties:
g-Tensor (aka g-matrix)                 ...  NO
Zero-Field splitting spin-orbit         ...  NO
Zero-field splitting spin-spin          ...  NO
Hyperfine couplings                     ...  NO (   0 nuclei)
Quadrupole couplings                    ...  NO (   0 nuclei)
Contact density                         ...  NO (   0 nuclei)

NMR properties:
Chemical shifts                         ...  NO (   0 nuclei)
Spin-rotation constants                 ...  NO (   0 nuclei)
Spin-spin couplings                     ...  NO (   0 nuclei,    0 pairs)

Choice of magnetic origin               ... GIAO
Position of magnetic origin             ...     0.000000     0.000000     0.000000

Properties with geometric perturbations:
SCF Hessian                             ...  NO
IR spectrum                             ...  NO
VCD spectrum                            ...  NO
X-ray spectroscopy properties:
SCF XES/XAS/RIXS spectra                ...  NO

SCF SOC stabilization energy            ...  NO
Diagonal Born-Oppenheimer correction    ...  NO

-------------
DIPOLE MOMENT
-------------

Method             : SCF
Type of density    : Electron Density
Multiplicity       :   1
Irrep              :   0
Energy             : -3011.3045312674671550 Eh
Basis              : AO
                                X                 Y                 Z
Electronic contribution:     58.782433945    -190.601139578      33.605354407
Nuclear contribution   :    -55.918878543     192.827421473     -34.236029130
                        -----------------------------------------
Total Dipole Moment    :      2.863555402       2.226281894      -0.630674723
                        -----------------------------------------
Magnitude (a.u.)       :      3.681579989
Magnitude (Debye)      :      9.357832654



--------------------
Rotational spectrum 
--------------------
 
Rotational constants in cm-1:             0.001477             0.000339             0.000316 
Rotational constants in MHz :            44.283578            10.162134             9.458462 

Dipole components along the rotational axes: 
x,y,z [a.u.] :    -0.790770     3.453998     0.999306 
x,y,z [Debye]:    -2.009977     8.779365     2.540033 

 

Dipole moment calculation done in   0.2 sec 

Maximum memory used throughout the entire PROP-calculation: 430.9 MB

--------------------------------
SUGGESTED CITATIONS FOR THIS RUN
--------------------------------

Below you find a list of papers that are relevant to this ORCA run
We neither can nor want to force you to cite these papers, but we appreciate if you do
You receive ORCA, which is the product of decades of hard work by many enthusiastic individuals, for free
The only thing we kindly ask in return is that you cite our papers,
We deeply appreciate it, if you show your appreciation for ORCA by not just citing the generic ORCA reference.

Please note that relegating all ORCA citations to the supporting information does *not* help us.
SI sections are not indexed - citations you put there will not count into any citation statistics
But we need these citations in order to attract the funding resources that allow us to do what we are doing

Therefore, if you are a happy ORCA user, please consider citing a few of the papers listed below in the main body of your paper

In addition to the list printed below, the program has created the file tddft.bibtex that contains the list in bibtex format
You can import this file easily into all common literature databanks and citation aid programs

It goes without saying that in many instances, there are alternative algorithms to achieve similar
results as the ones you have gotten from ORCA. It is, of course, also the case that in some instances
ORCA just re-implements algorithms worked out by others. We are fully aware of that and we are also
fully appreciative of our colleagues work. Hence this citation list should not be read as indicating
that the listed papers, which are focused on our own work, are the only ones worth citing. It simply
meant to make it easier for users to cite ORCA specific papers. It is not a substitute for doing your
own literature research and citing the relevant literature in a scientifically appropriate manner.

List of essential papers. We consider these as the minimum necessary citations

  1. Neese, F.
     Software update: the ORCA program system, version 6.0
     WIRES Comput. Molec. Sci. 2025 15(1), e70019
     doi.org/10.1002/wcms.70019

List of papers to cite with high priority. The work reported in these papers was absolutely
necessary for this run to complete.
Our perspective: the developers of density functionals and basis sets usually get cited in chemistry papers
Good! But without the algorithms to do something with them, the functionals or basis sets would not do anything.
Hence, in our opinion, the algorithm design and method developments papers are equally worthy of getting cited

  1. Neese, F.; Olbrich, G.
     Efficient use of the resolution of the identity approximation in time-dependent density functional calculations with hybrid density functionals
     Chem. Phys. Lett. 2002 362 , 170-178
     doi.org/10.1016/s0009-2614(02)01053-9
  2. Neese, F.
     An improvement of the resolution of the identity approximation for the formation of the Coulomb matrix
     J. Comp. Chem. 2003 24(14), 1740-1747
     doi.org/10.1002/jcc.10318
  3. Neese, F.; Wennmohs, F.; Hansen, A.; Becker, U.
     Efficient, approximate and parallel Hartree-Fock and hybrid DFT calculations. A 'chain-of-spheres' algorithm for the Hartree-Fock exchange
     Chem. Phys. 2009 356(1-3), 98-109
     doi.org/10.1016/j.chemphys.2008.10.036
  4. Grimme, S.; Antony, J.; Ehrlich, S.; Krieg, H.
     A consistent and accurate ab initio parametrization of density functional dispersion correction (DFT-D) for the 94 elements H-Pu
     J. Chem. Phys. 2010 132 , 154104
     doi.org/10.1063/1.3382344
  5. Garcia-Rates, M.; Neese, F.
     Effect of the Solute Cavity on the Solvation Energy and its Derivatives within the Framework of the Gaussian Charge Scheme
     J. Comput. Chem. 2020 41 , 922-939
     doi.org/10.1002/jcc.26139
  6. Helmich-Paris, B.; de Souza, B.; Neese, F.; Izsák, R.
     An improved chain of spheres for exchange algorithm
     J. Chem. Phys. 2021 155(10), 104109
     doi.org/10.1063/5.0058766
  7. Neese, F.
     The SHARK Integral Generation and Digestion System
     J. Comp. Chem. 2022 44(3), 381
     doi.org/10.1002/jcc.26942

List of suggested additional citations. These are papers that are important in the 'surrounding' of 
of this run, or papers that preceded the highly important papers. If you like your results we are grateful for a citation.

  1. Izsak, R.; Neese, F.
     An overlap fitted chain of spheres exchange method
     J. Chem. Phys. 2011 135 , 144105
     doi.org/10.1063/1.3646921
  2. Izsak, R.; Hansen, A.; Neese, F.
     The resolution of identity and chain of spheres approximations for the LPNO-CCSD singles Fock term
     Molec. Phys. 2012 110 , 2413-2417
     doi.org/10.1080/00268976.2012.687466
  3. Neese, F.
     The ORCA program system
     WIRES Comput. Molec. Sci. 2012 2(1), 73-78
     doi.org/10.1002/wcms.81
  4. Izsak, R.; Neese, F.; Klopper, W.
     Robust fitting techniques in the chain of spheres approximation to the Fock exchange: The role of the complementary space
     J. Chem. Phys. 2013 139 , 
     doi.org/10.1063/1.4819264
  5. Neese, F.
     Software update: the ORCA program system, version 4.0
     WIRES Comput. Molec. Sci. 2018 8(1), 1-6
     doi.org/10.1002/wcms.1327
  6. Neese, F.; Wennmohs, F.; Becker, U.; Riplinger, C.
     The ORCA quantum chemistry program package
     J. Chem. Phys. 2020 152(22), 224108
     doi.org/10.1063/5.0004608
  7. Neese, F.
     Software update: The ORCA program system—Version 5.0
     WIRES Comput. Molec. Sci. 2022 12(1), e1606
     doi.org/10.1002/wcms.1606

List of optional additional citations

  1. Neese, F.
     Approximate second-order SCF convergence for spin unrestricted wavefunctions
     Chem. Phys. Lett. 2000 325(1-3), 93-98
     doi.org/10.1016/s0009-2614(00)00662-x

Timings for individual modules:

Sum of individual times          ...    55490.203 sec (= 924.837 min)
Startup calculation              ...       83.531 sec (=   1.392 min)   0.2 %
SCF iterations                   ...    11794.662 sec (= 196.578 min)  21.3 %
Property integrals               ...        4.428 sec (=   0.074 min)   0.0 %
Property calculations            ...        1.542 sec (=   0.026 min)   0.0 %
CIS module                       ...    43606.040 sec (= 726.767 min)  78.6 %
                             ****ORCA TERMINATED NORMALLY****
TOTAL RUN TIME: 0 days 15 hours 24 minutes 50 seconds 842 msec
