
                                 *****************
                                 * O   R   C   A *
                                 *****************

                                            #,                                       
                                            ###                                      
                                            ####                                     
                                            #####                                    
                                            ######                                   
                                           ########,                                 
                                     ,,################,,,,,                         
                               ,,#################################,,                 
                          ,,##########################################,,             
                       ,#########################################, ''#####,          
                    ,#############################################,,   '####,        
                  ,##################################################,,,,####,       
                ,###########''''           ''''###############################       
              ,#####''   ,,,,##########,,,,          '''####'''          '####       
            ,##' ,,,,###########################,,,                        '##       
           ' ,,###''''                  '''############,,,                           
         ,,##''                                '''############,,,,        ,,,,,,###''
      ,#''                                            '''#######################'''  
     '                                                          ''''####''''         
             ,#######,   #######,   ,#######,      ##                                
            ,#'     '#,  ##    ##  ,#'     '#,    #''#        ,####,    ,#,          
            ##       ##  ##   ,#'  ##            #'  '#       #'       ,# #          
            ##       ##  #######   ##           ,######,      #####,      #          
            '#,     ,#'  ##    ##  '#,     ,#' ,#      #,     #,   #      #          
             '#######'   ##     ##  '#######'  #'      '#     '####' #    #          



                #########################################################
                #                        -***-                          #
                #          Department of theory and spectroscopy        #
                #                                                       #
                #                      Frank Neese                      #
                #                                                       #
                #     Directorship, Architecture, Infrastructure        #
                #                    SHARK, DRIVERS                     #
                #        Core code/Algorithms in most modules           #
                #                                                       #
                #        Max Planck Institute fuer Kohlenforschung      #
                #                Kaiser Wilhelm Platz 1                 #
                #                 D-45470 Muelheim/Ruhr                 #
                #                      Germany                          #
                #                                                       #
                #                  All rights reserved                  #
                #                        -***-                          #
                #########################################################


                         Program Version 6.1.1  -  RELEASE   -
                                (GIT: $487d211c$)
                          ($2025-11-21 10:33:24 +0100$)


 With contributions from (in alphabetic order):
[Max-Planck-Institut fuer Kohlenforschung]                               
  Daniel Aravena         : Magnetic Suceptibility                        
  Michael Atanasov       : Ab Initio Ligand Field Theory (pilot matlab implementation)
  Alexander A. Auer      : GIAO ZORA, VPT2 properties, NMR spectrum      
  Ute Becker             : All parallelization in ORCA, NUMFREQ, NUMCALC 
  Giovanni Bistoni       : ED, misc. LED, open-shell LED, HFLD           
  Dmytro Bykov           : pre 5.0 version of the SCF Hessian            
  Marcos Casanova-Páez   : Triplet and SCS-CIS(D). UHF-(DLPNO)-IP/EA/STEOM-CCSD. UHF-CVS-IP/STEOM-CCSD   
  Vijay G. Chilkuri      : MRCI spin determinant printing, contributions to CSF-ICE 
  Pauline Colinet        : FMM embedding                                 
  Dipayan Datta          : RHF DLPNO-CCSD density                        
  Achintya Kumar Dutta   : EOM-CC, STEOM-CC                              
  Nicolas Foglia         : Exact transition moments, OPA infrastructure, MCD improvements    
  Dmitry Ganyushin       : Spin-Orbit,Spin-Spin,Magnetic field MRCI      
  Miquel Garcia-Rates    : C-PCM and meta-GGA Hessian, CCSD/C-PCM, Gaussian charge scheme 
  Tiago L. C. Gouveia    : GS-ROHF, GS-ROCIS                             
  Yang Guo               : DLPNO-NEVPT2, F12-NEVPT2, CIM, IAO-localization        
  Andreas Hansen         : Spin unrestricted coupled pair/coupled cluster methods 
  Ingolf Harden          : AUTO-CI MPn and infrastructure                
  Benjamin Helmich-Paris : MC-RPA, TRAH-(SCF,CASSCF), AVAS, COSX integrals, SCF dyn. polar., MC-PDFT, srDFT 
  Lee Huntington         : MR-EOM, pCC                                   
  Robert Izsak           : Overlap fitted RIJCOSX, COSX-SCS-MP3, EOM     
  Riya Kayal             : Wick's Theorem for AUTO-CI, AUTO-CI UHF-CCSDT 
  Emily Kempfer          : AUTO-CI RHF CISDT and CCSDT, approximate NEVPT4
  Christian Kollmar      : KDIIS, OOCD, Brueckner-CCSD(T), CCSD density, CASPT2, CASPT2-K, improved NEVPT2 
  Axel Koslowski         : Symmetry handling                             
  Simone Kossmann        : meta-GGA functionals, TD-DFT gradient, OOMP2, (MP2 Hessian; deprecated post 5.0) 
  Lucas Lang             : DCDCAS, Hyperfine gauge corrections, ICE-SOC+SSC
  Marvin Lechner         : AUTO-CI (C++ implementation), FIC-MRCC        
  Spencer Leger          : CASSCF response                               
  Dagmar Lenk            : GEPOL surface, SMD, ORCA-2-JSON               
  Dimitrios Liakos       : Extrapolation schemes; Compound Job, Property file
  Dimitrios Manganas     : Further ROCIS development; embedding schemes. LFT, Crystal Embedding 
  Dimitrios Pantazis     : SARC Basis sets                               
  Anastasios Papadopoulos: AUTO-CI, single reference methods and gradients 
  Taras Petrenko         : pre 6.0 DFT Hessian and TD-DFT gradient,  ECA, NRVS 
  Petra Pikulova         : Analytic Raman intensities                    
  Peter Pinski           : DLPNO-MP2, DLPNO-MP2 Gradient                 
  Shashank Vittal Rao    : ES-AILFT, MagRelax                            
  Christoph Reimann      : Effective Core Potentials                     
  Marius Retegan         : Local ZFS, SOC                                
  Christoph Riplinger    : Optimizer, TS searches, QM/MM, DLPNO-CCSD(T), (RO)-DLPNO pert. Triples 
  Michael Roemelt        : Original ROCIS implementation, recursive CI coupling coefficients
  Masaaki Saitow         : Open-shell DLPNO-CCSD energy and density      
  Barbara Sandhoefer     : DKH picture change effects                    
  Yorick L. A. Schmerwitz: GMF and freeze-and-release deltaSCF, NEB S-IDPP initial path                    
  Kantharuban Sivalingam : CASSCF convergence/infrastructure, NEVPT2, NEVPT3, NEVPT4(SD), FIC-MRCI and CEPA variants
  Bernardo de Souza      : ESD, SOC TD-DFT                               
  Georgi L. Stoychev     : AutoAux, RI-MP2 NMR, DLPNO-MP2 response, X2C  
  Van Anh Tran           : RI-MP2 g-tensors                              
  Willem Van den Heuvel  : Paramagnetic NMR                              
  Zikuan Wang            : NOTCH, Electric field optimization            
  Frank Wennmohs         : Technical directorship and infrastructure     
  Hang Xu                : AUTO-CI-Response properties                   
                                                                         
[FACCTs GmbH]                                                            
  Markus Bursch, Nicolas Foglia, Miquel Garcia-Rates, Ingolf Harden, Hagen Neugebauer, Anastasios Papadopoulos, 
  Christoph Riplinger, Bernardo de Souza, Georgi L. Stoychev                                                    
                                                                 
  APM, various basis sets, CI-OPT, improved COSX, DLPNO-Multilevel,           
  DOCKER, DRACO, updates on ESD, Fragmentator, GOAT, IRC, LR-CPCM, L-BFGS, MBIS, meta-GGA TD-DFT gradient, ML-optimized integration grids, 
  MM, NACMEs, nearIR, NEB, NEB-TS, NL-DFT gradient (VV10), 2- and 3-layer-ONIOM, interface openCOSMO-RS, QMMM,   
  Crystal-QMMM, RESP, rigid body optimization, SF, symmetry and pop. for TD-DFT, various functionals, SOLVATOR                                   
                                                                         
[Other institutions]                                                     
  V. Asgeirsson          : NEB                                           
  Christoph Bannwarth    : sTDA-DFT, sTD-DFT, PBEh-3c, B97-3c, D3        
  Giovanni Bistoni       : ETS/NOCV, ADLD/ADEX, COVALED                  
  Martin Brehm           : Molecular dynamics                            
  Ronald Cardenas        : ETS/NOCV                                      
  Martina Colucci        : COVALED                                       
  Sebastian Ehlert       : rSCAN, r2SCAN, r2SCAN-3c, D4, dhf basis sets  
  Marvin Friede          : D4 for Fr, Ra, Ac-Lr                          
  Lars Goerigk           : TD-DFT with DH, B97 family of functionals     
  Stefan Grimme          : VdW corrections, initial TS optimization, DFT functionals, gCP, sTDA/sTD-DF 
  Waldemar Hujo          : DFT-NL                                        
  H. Jonsson             : NEB                                           
  Holger Kruse           : gCP                                           
  Marcel Mueller         : wB97X-3c, vDZP basis set                      
  Hagen Neugebauer       : wr2SCAN, Native XTB                           
  Gianluca Regni         : ADLD/ADEX                                     
  Tobias Risthaus        : pre 6.0 range-separated hybrid DFT and stability analysis
  Lukas Wittmann         : regularized MP2, r2SCAN double-hybrids, wr2SCAN        
                                                                         
We gratefully acknowledge several colleagues who have allowed us to      
interface, adapt or use parts of their codes:                            
  Ed Valeev, F. Pavosevic, A. Kumar             : LibInt (2-el integral package), F12 methods 
  Garnet Chan, S. Sharma, J. Yang, R. Olivares  : DMRG                   
  Ulf Ekstrom                                   : XCFun DFT Library      
  Mihaly Kallay                                 : mrcc  (arbitrary order and MRCC methods)
  Frank Weinhold                                : gennbo (NPA and NBO analysis)           
  Simon Mueller                                 : openCOSMO-RS                            
  Christopher J. Cramer and Donald G. Truhlar   : smd solvation model                     
  S Lehtola, MJT Oliveira, MAL Marques          : LibXC Library                           
  Liviu Ungur et al                             : ANISO software                          


 Your calculation uses the libint2 library for the computation of 2-el integrals
 For citations please refer to: http://libint.valeyev.net

 Your ORCA version has been built with support for libXC version: 7.0.0
 For citations please refer to: https://libxc.gitlab.io

 This ORCA versions uses:
   CBLAS   interface :  Fast vector & matrix operations
   LAPACKE interface :  Fast linear algebra routines
   SCALAPACK package :  Parallel linear algebra routines
   Shared memory     :  Shared parallel matrices
   BLAS/LAPACK       :  OpenBLAS 0.3.29  USE64BITINT DYNAMIC_ARCH NO_AFFINITY Haswell SINGLE_THREADED
        Core in use  :  Haswell
   Copyright (c) 2011-2014, The OpenBLAS Project


  ***********************************
  * Starting time: Fri Aug 14 00:30:49 2026
  * Host name:     steezy
  * Process ID:    445302
  * Working dir.:  /home/jannes/chlorophyll-ladder/012-bacteriochlorophyll-growth/bacteriochlorophyll_a/02_tddft_ch2cl2/pbe0
  ***********************************

NOTE: MaxCore=2200 MB was set to SCF,MP2,MDCI,CIPSI,MRCI,RASCI and CIS
      => If you want to overwrite this, your respective input block should be placed after the MaxCore statement


***************************************
The coordinates will be read from file: /home/jannes/chlorophyll-ladder/012-bacteriochlorophyll-growth/bacteriochlorophyll_a/01_opt_extended/bacteriochlorophyll_a_opt_extended_b3lypd4_tzvp.xyz
***************************************


================================================================================

----- Orbital basis set information -----
Your calculation utilizes the basis: def2-TZVP
   F. Weigend and R. Ahlrichs, Phys. Chem. Chem. Phys. 7, 3297 (2005).

----- AuxJ basis set information -----
Your calculation utilizes the auxiliary basis: def2/J
   H-Rn: F. Weigend, Phys. Chem. Chem. Phys. 8, 1057 (2006).
   Fr-Lr: K. Eichkorn, F. Weigend, O. Treutler, R. Ahlrichs; Theor. Chem. Acc. 97, 119 (1997).

================================================================================
                                        WARNINGS
                       Please study these warnings very carefully!
================================================================================


WARNING: CIS/ROCIS methods need fully converged wavefunctions
  ===> : Setting SCFConvForced true
         You can overwrite this default with %scf ConvForced false 


================================================================================
                                       INPUT FILE
================================================================================
NAME = tddft.inp
|  1> %pal nprocs 4 end
|  2> %maxcore 2200
|  3> ! PBE0 def2-TZVP def2/J RIJCOSX DefGrid3 TightSCF CPCM(CH2Cl2)
|  4> %tddft
|  5>   nroots 30
|  6>   tda false
|  7>   triplets false
|  8> end
|  9> * xyzfile 0 1 /home/jannes/chlorophyll-ladder/012-bacteriochlorophyll-growth/bacteriochlorophyll_a/01_opt_extended/bacteriochlorophyll_a_opt_extended_b3lypd4_tzvp.xyz
| 10> 
| 11>                          ****END OF INPUT****
================================================================================

                       ****************************
                       * Single Point Calculation *
                       ****************************

---------------------------------
CARTESIAN COORDINATES (ANGSTROEM)
---------------------------------
  Mg    41.654185   48.095014   22.382115
  C     38.395878   49.196119   22.227099
  C     42.679750   51.094416   21.176176
  C     44.841747   46.994541   22.608586
  C     40.525839   45.037233   23.583157
  N     40.650258   49.892075   21.790744
  C     39.309104   50.142195   21.824346
  C     39.001906   51.564507   21.414549
  C     40.340599   52.019553   20.796999
  C     41.309410   50.960472   21.289101
  C     40.295738   52.058053   19.265587
  C     38.534396   52.425597   22.600020
  C     39.486890   52.411392   23.791929
  C     38.931187   53.164502   24.977543
  O     37.757554   53.317191   25.210025
  O     39.916070   53.626758   25.765678
  N     43.456810   48.915214   21.992166
  C     43.684450   50.174742   21.505615
  C     45.096001   50.394661   21.358140
  C     45.721030   49.225922   21.772403
  C     44.668108   48.311345   22.167343
  C     45.697065   51.675403   20.876139
  C     47.161302   48.913623   21.819028
  O     47.595775   47.968588   22.458439
  C     48.134761   49.772692   21.036427
  N     42.541072   46.287612   22.997262
  C     43.875068   46.075791   22.972778
  C     44.213197   44.649768   23.360208
  C     42.880981   44.138485   23.943671
  C     41.892837   45.188841   23.472234
  C     44.681337   43.842016   22.145192
  C     42.883504   44.001105   25.478117
  C     43.152758   45.300525   26.234088
  N     39.885934   47.252563   22.804899
  C     39.549512   45.992179   23.266984
  C     38.118868   45.862645   23.380809
  C     37.618684   47.093849   22.975879
  C     38.726396   47.903031   22.638816
  C     37.364975   44.658723   23.830781
  C     36.401366   47.862170   22.773672
  O     35.242299   47.553691   22.911362
  C     36.884425   49.307576   22.304796
  C     36.215127   49.657560   20.996699
  O     36.663447   49.420929   19.902260
  O     35.029915   50.246642   21.210054
  C     34.241472   50.512071   20.040305
  C     39.494986   54.365743   26.952752
  C     38.950473   55.720426   26.627044
  C     39.676448   56.773630   26.243057
  C     41.171125   56.745343   26.092285
  C     38.999943   58.070852   25.883897
  C     39.010384   58.366607   24.376827
  C     38.270318   59.657093   24.030772
  C     38.124269   59.937774   22.528569
  C     39.482424   60.155203   21.856128
  C     37.178718   61.125838   22.302730
  C     36.762928   61.357191   20.850720
  C     35.744127   62.486379   20.702573
  C     35.207561   62.698600   19.279927
  C     36.308339   63.159752   18.321398
  C     34.023486   63.675351   19.301616
  C     33.263132   63.806379   17.982699
  C     32.027950   64.698003   18.101348
  C     31.164051   64.788870   16.836678
  C     31.910499   65.431018   15.665164
  C     29.868590   65.549157   17.127636
  H     43.012741   52.035993   20.762293
  H     45.867296   46.666859   22.678540
  H     40.175979   44.088007   23.968920
  H     38.212146   51.575882   20.661466
  H     40.630395   53.007479   21.164563
  H     41.271395   52.311340   18.847350
  H     39.995880   51.087560   18.864959
  H     39.573857   52.803152   18.923823
  H     38.402930   53.453395   22.248826
  H     37.550965   52.094894   22.934280
  H     39.654623   51.382225   24.127167
  H     40.468636   52.816685   23.545746
  H     46.498005   52.018533   21.531401
  H     46.121775   51.574317   19.874221
  H     44.954090   52.468979   20.835177
  H     49.091411   49.255906   21.003376
  H     47.783030   49.971608   20.023686
  H     48.277118   50.736295   21.530178
  H     45.006441   44.639331   24.111259
  H     42.626057   43.163125   23.521430
  H     44.890328   42.808566   22.431012
  H     43.913079   43.831660   21.368404
  H     45.589628   44.267151   21.715625
  H     41.917453   43.594531   25.791577
  H     43.635095   43.252218   25.748207
  H     43.137650   45.126904   27.311377
  H     44.127581   45.723247   25.983570
  H     42.394483   46.052847   26.008752
  H     36.300977   44.879238   23.899811
  H     37.492205   43.825890   23.132883
  H     37.708172   44.312578   24.809553
  H     36.540343   50.008910   23.067602
  H     33.323507   50.964839   20.404453
  H     34.767449   51.192836   19.371076
  H     34.027697   49.584411   19.510530
  H     38.752282   53.768642   27.479334
  H     40.402586   54.414373   27.550907
  H     37.872598   55.820537   26.676194
  H     41.623521   57.597522   26.607969
  H     41.619367   55.830591   26.475097
  H     41.455769   56.828644   25.039617
  H     37.964652   58.046846   26.232843
  H     39.493557   58.897600   26.409021
  H     40.042258   58.419719   24.022295
  H     38.542784   57.526455   23.852167
  H     37.269297   59.612776   24.473482
  H     38.775092   60.506815   24.507189
  H     37.657105   59.053728   22.073789
  H     39.380540   60.318337   20.782646
  H     39.983415   61.031060   22.280352
  H     40.141939   59.296864   21.990500
  H     36.275597   60.968995   22.902750
  H     37.648749   62.035818   22.696410
  H     37.644715   61.572527   20.243754
  H     36.332382   60.431367   20.449867
  H     34.896877   62.280187   21.365915
  H     36.186327   63.424616   21.060503
  H     34.829286   61.730985   18.922794
  H     35.935409   63.276077   17.303136
  H     36.713444   64.125181   18.640728
  H     37.134717   62.448953   18.282587
  H     33.321026   63.350476   20.077159
  H     34.381664   64.664174   19.614624
  H     33.926804   64.200016   17.209898
  H     32.955692   62.808976   17.645047
  H     31.404430   64.325162   18.921792
  H     32.336467   65.710075   18.392677
  H     30.895202   63.765309   16.545400
  H     31.268706   65.499592   14.783810
  H     32.230469   66.445712   15.921902
  H     32.798113   64.863348   15.382156
  H     29.223693   65.588677   16.246705
  H     29.304586   65.078558   17.936329
  H     30.082986   66.579302   17.427734

----------------------------
CARTESIAN COORDINATES (A.U.)
----------------------------
  NO LB      ZA    FRAG     MASS         X           Y           Z
   0 Mg   12.0000    0    24.305   78.715002   90.886405   42.296067
   1 C     6.0000    0    12.011   72.557694   92.967192   42.003129
   2 C     6.0000    0    12.011   80.653039   96.554453   40.017172
   3 C     6.0000    0    12.011   84.738622   88.806812   42.724035
   4 C     6.0000    0    12.011   76.582737   85.108036   44.565707
   5 N     7.0000    0    14.007   76.817854   94.282359   41.178538
   6 C     6.0000    0    12.011   74.283441   94.755017   41.242038
   7 C     6.0000    0    12.011   73.702921   97.442797   40.467633
   8 C     6.0000    0    12.011   76.232684   98.302708   39.300633
   9 C     6.0000    0    12.011   78.063471   96.301336   40.230571
  10 C     6.0000    0    12.011   76.147909   98.375463   36.406684
  11 C     6.0000    0    12.011   72.819456   99.070021   42.707848
  12 C     6.0000    0    12.011   74.619409   99.043177   44.960229
  13 C     6.0000    0    12.011   73.569282  100.466349   47.200716
  14 O     8.0000    0    15.999   71.351436  100.754889   47.640043
  15 O     8.0000    0    15.999   75.430440  101.339886   48.690076
  16 N     7.0000    0    14.007   82.121470   92.436357   41.559170
  17 C     6.0000    0    12.011   82.551647   94.816521   40.639723
  18 C     6.0000    0    12.011   85.219092   95.232108   40.361035
  19 C     6.0000    0    12.011   86.400225   93.023512   41.143878
  20 C     6.0000    0    12.011   84.410492   91.295211   41.890208
  21 C     6.0000    0    12.011   86.354937   97.652360   39.450185
  22 C     6.0000    0    12.011   89.121945   92.433351   41.231987
  23 O     8.0000    0    15.999   89.942979   90.647494   42.440300
  24 C     6.0000    0    12.011   90.961517   94.056757   39.753087
  25 N     7.0000    0    14.007   80.390975   87.470911   43.458526
  26 C     6.0000    0    12.011   82.911862   87.070627   43.412259
  27 C     6.0000    0    12.011   83.550833   84.375833   44.144395
  28 C     6.0000    0    12.011   81.033310   83.409650   45.246982
  29 C     6.0000    0    12.011   79.165989   85.394534   44.356094
  30 C     6.0000    0    12.011   84.435490   82.849403   41.848349
  31 C     6.0000    0    12.011   81.038077   83.150037   48.146664
  32 C     6.0000    0    12.011   81.546895   85.605585   49.575242
  33 N     7.0000    0    14.007   75.373492   89.294404   43.095013
  34 C     6.0000    0    12.011   74.737746   86.912622   43.968227
  35 C     6.0000    0    12.011   72.034220   86.667839   44.183325
  36 C     6.0000    0    12.011   71.089010   88.994477   43.418119
  37 C     6.0000    0    12.011   73.182283   90.523609   42.781162
  38 C     6.0000    0    12.011   70.609569   84.392756   45.033649
  39 C     6.0000    0    12.011   68.788612   90.446394   43.036003
  40 O     8.0000    0    15.999   66.598293   89.863453   43.296200
  41 C     6.0000    0    12.011   69.701462   93.177815   42.149955
  42 C     6.0000    0    12.011   68.436671   93.839189   39.678010
  43 O     8.0000    0    15.999   69.283873   93.392021   37.609821
  44 O     8.0000    0    15.999   66.196946   94.952393   40.081193
  45 C     6.0000    0    12.011   64.707004   95.453980   37.870688
  46 C     6.0000    0    12.011   74.634707  102.736365   50.933320
  47 C     6.0000    0    12.011   73.605726  105.296344   50.317821
  48 C     6.0000    0    12.011   74.977620  107.286612   49.592191
  49 C     6.0000    0    12.011   77.802151  107.233158   49.307274
  50 C     6.0000    0    12.011   73.699211  109.738006   48.913477
  51 C     6.0000    0    12.011   73.718942  110.296902   46.065528
  52 C     6.0000    0    12.011   72.320420  112.735569   45.411577
  53 C     6.0000    0    12.011   72.044427  113.265978   42.572826
  54 C     6.0000    0    12.011   74.610969  113.676859   41.302096
  55 C     6.0000    0    12.011   70.257595  115.511093   42.146052
  56 C     6.0000    0    12.011   69.471865  115.948288   39.402151
  57 C     6.0000    0    12.011   67.546610  118.082143   39.122193
  58 C     6.0000    0    12.011   66.532647  118.483183   36.433782
  59 C     6.0000    0    12.011   68.612817  119.354634   34.622425
  60 C     6.0000    0    12.011   64.295071  120.328975   36.474768
  61 C     6.0000    0    12.011   62.858210  120.576582   33.982377
  62 C     6.0000    0    12.011   60.524054  122.261508   34.206589
  63 C     6.0000    0    12.011   58.891521  122.433221   31.816711
  64 C     6.0000    0    12.011   60.302103  123.646705   29.602870
  65 C     6.0000    0    12.011   56.443455  123.869954   32.366541
  66 H     1.0000    0     1.008   81.282300   98.333776   39.235048
  67 H     1.0000    0     1.008   86.676627   88.187582   42.856230
  68 H     1.0000    0     1.008   75.921597   83.314258   45.294694
  69 H     1.0000    0     1.008   72.210490   97.464292   39.044513
  70 H     1.0000    0     1.008   76.780319  100.169618   39.995228
  71 H     1.0000    0     1.008   77.991634   98.854106   35.616329
  72 H     1.0000    0     1.008   75.581260   96.541497   35.649605
  73 H     1.0000    0     1.008   74.783751   99.783496   35.760843
  74 H     1.0000    0     1.008   72.571020  101.012277   42.044188
  75 H     1.0000    0     1.008   70.961039   98.445083   43.339508
  76 H     1.0000    0     1.008   74.936378   97.098333   45.593739
  77 H     1.0000    0     1.008   76.474639   99.809070   44.495012
  78 H     1.0000    0     1.008   87.868496   98.300781   40.688450
  79 H     1.0000    0     1.008   87.157524   97.461335   37.556835
  80 H     1.0000    0     1.008   84.950920   99.152001   39.372778
  81 H     1.0000    0     1.008   92.769322   93.080173   39.690629
  82 H     1.0000    0     1.008   90.296840   94.432654   37.839283
  83 H     1.0000    0     1.008   91.230531   95.877702   40.686139
  84 H     1.0000    0     1.008   85.049847   84.356111   45.563677
  85 H     1.0000    0     1.008   80.551574   81.566486   44.449060
  86 H     1.0000    0     1.008   84.830427   80.896466   42.388470
  87 H     1.0000    0     1.008   82.983692   82.829834   40.380432
  88 H     1.0000    0     1.008   86.151912   83.652791   41.036583
  89 H     1.0000    0     1.008   79.212507   82.381724   48.739016
  90 H     1.0000    0     1.008   82.458380   81.734846   48.657060
  91 H     1.0000    0     1.008   81.518344   85.277490   51.611023
  92 H     1.0000    0     1.008   83.389043   86.404414   49.101831
  93 H     1.0000    0     1.008   80.113962   87.027269   49.149418
  94 H     1.0000    0     1.008   68.598904   84.809469   45.164097
  95 H     1.0000    0     1.008   70.850000   82.818930   43.714813
  96 H     1.0000    0     1.008   71.258118   83.738637   46.883260
  97 H     1.0000    0     1.008   69.051240   94.503144   43.591450
  98 H     1.0000    0     1.008   62.972302   96.309587   38.558827
  99 H     1.0000    0     1.008   65.700956   96.740441   36.606029
 100 H     1.0000    0     1.008   64.303029   93.700958   36.869559
 101 H     1.0000    0     1.008   73.231201  101.608007   51.928416
 102 H     1.0000    0     1.008   76.349823  102.828263   52.063669
 103 H     1.0000    0     1.008   71.568839  105.485527   50.410701
 104 H     1.0000    0     1.008   78.657056  108.843542   50.281775
 105 H     1.0000    0     1.008   78.649206  105.504528   50.030683
 106 H     1.0000    0     1.008   78.340050  107.390573   47.318018
 107 H     1.0000    0     1.008   71.742796  109.692643   49.572889
 108 H     1.0000    0     1.008   74.632007  111.300335   49.905817
 109 H     1.0000    0     1.008   75.668902  110.397269   45.395558
 110 H     1.0000    0     1.008   72.835306  108.709246   45.074063
 111 H     1.0000    0     1.008   70.428764  112.651820   46.248178
 112 H     1.0000    0     1.008   73.274305  114.341310   46.311876
 113 H     1.0000    0     1.008   71.161616  111.595373   41.713417
 114 H     1.0000    0     1.008   74.418435  113.985139   39.273509
 115 H     1.0000    0     1.008   75.557705  115.331988   42.103763
 116 H     1.0000    0     1.008   75.857271  112.054833   41.556023
 117 H     1.0000    0     1.008   68.550943  115.214703   43.279925
 118 H     1.0000    0     1.008   71.145824  117.230707   42.889999
 119 H     1.0000    0     1.008   71.138202  116.355213   38.255150
 120 H     1.0000    0     1.008   68.658251  114.198734   38.644649
 121 H     1.0000    0     1.008   65.945540  117.692497   40.375727
 122 H     1.0000    0     1.008   68.382248  119.855154   39.798584
 123 H     1.0000    0     1.008   65.817811  116.654655   35.758899
 124 H     1.0000    0     1.008   67.908081  119.574457   32.698188
 125 H     1.0000    0     1.008   69.378355  121.179031   35.225870
 126 H     1.0000    0     1.008   70.174444  118.011418   34.549082
 127 H     1.0000    0     1.008   62.967614  119.715050   37.940333
 128 H     1.0000    0     1.008   64.971930  122.197580   37.066268
 129 H     1.0000    0     1.008   64.112367  121.320447   32.521995
 130 H     1.0000    0     1.008   62.277233  118.691764   33.344307
 131 H     1.0000    0     1.008   59.345772  121.556939   35.757005
 132 H     1.0000    0     1.008   61.107067  124.174045   34.757123
 133 H     1.0000    0     1.008   58.383471  120.498971   31.266275
 134 H     1.0000    0     1.008   59.089290  123.776292   27.937353
 135 H     1.0000    0     1.008   60.906759  125.564199   30.088034
 136 H     1.0000    0     1.008   61.979451  122.573964   29.068062
 137 H     1.0000    0     1.008   55.224776  123.944637   30.701822
 138 H     1.0000    0     1.008   55.377642  122.980652   33.894749
 139 H     1.0000    0     1.008   56.848605  125.816647   32.933644

--------------------------------
INTERNAL COORDINATES (ANGSTROEM)
--------------------------------
 Mg     0   0   0     0.000000000000     0.00000000     0.00000000
 C      1   0   0     3.442822576636     0.00000000     0.00000000
 C      1   2   0     3.391531285625    89.27379526     0.00000000
 C      1   2   3     3.379775498795   178.68423197   127.32406749
 C      1   2   3     3.473570507969    89.40887264   180.53794777
 N      1   2   3     2.141732801460    43.58003832     0.11090155
 C      6   1   2     1.364691414325   127.41948713     1.07056829
 C      7   6   1     1.511712742358   111.43666168   176.00992723
 C      8   7   6     1.542897338756   102.10315393    13.46498825
 C      6   1   2     1.351886955168   122.48131868   182.42025883
 C      9   8   7     1.532552736982   112.45554488   104.11554453
 C      8   7   6     1.537979908075   112.30863114   250.91324535
 C     12   8   7     1.525809123395   114.02584502    53.55888874
 C     13  12   8     1.510517084465   112.26203018   185.25100837
 O     14  13  12     1.206141450090   124.91634702    27.21103301
 O     14  13  12     1.343440084959   111.24274088   205.97397103
 N      1   2   3     2.018476041096   134.95416498     2.25914019
 C     17   1   2     1.369292792013   126.21998472   357.41567272
 C     18  17   1     1.436171650307   109.92181242   180.07534682
 C     19  18  17     1.388605156575   106.43211159   359.96393603
 C     17   1   2     1.364766257928   126.01833725   177.40321797
 C     19  18  17     1.494625119211   124.02723872   181.27915309
 C     20  19  18     1.474478961668   128.85645071   179.71182275
 O     23  20  19     1.220944265732   121.87679999   164.28552897
 C     23  20  19     1.515944062947   119.39966630   343.32681133
 N      1   2   3     2.105154224909   133.35062424   179.73527050
 C     26   1   2     1.350930508859   123.04757831   180.13538757
 C     27  26   1     1.515907608044   111.29225075   184.78404961
 C     28  27  26     1.541634719739   102.47179288   347.04668041
 C     26   1   2     1.361288157653   126.46498462   359.75567540
 C     28  27  26     1.532279387962   111.18551198   107.93223998
 C     29  28  27     1.540585487210   113.89877928   253.64836923
 C     32  29  28     1.527246755281   114.67265954    59.92822059
 N      1   2   3     2.003791824596    46.27529949   181.22260356
 C     34   1   2     1.383933156407   131.90213610   179.70637604
 C     35  34   1     1.440998978098   110.46196832   181.46862980
 C     36  35  34     1.389249564606   104.75952235   359.71581260
 C     34   1   2     1.339857884193   122.23746672     0.94590271
 C     36  35  34     1.490052685810   126.78392204   179.45899266
 C     37  36  35     1.453640074009   144.14207541   180.44565283
 O     40  37  36     1.207292425423   130.77273245   357.90957225
 C      2   1   3     1.517547159741   164.53417584   179.98171429
 C     42   2   1     1.510485445098   114.45640537   236.65105402
 O     43  42   2     1.206143037713   125.14517354    25.93115015
 O     43  42   2     1.340620926581   110.83793086   204.57463086
 C     45  43  42     1.435411877567   115.92326041   185.66164535
 C     16  14  13     1.460326472057   116.07910134   180.41601552
 C     47  16  14     1.495909802625   112.72042119   287.76467119
 C     48  47  16     1.335561344488   125.37145776   286.60779164
 C     49  48  47     1.502528875259   123.69258929   359.50974429
 C     49  48  47     1.506466067918   120.23168817   177.26804634
 C     51  49  48     1.535851292928   113.37278381   252.54242440
 C     52  51  49     1.527353279793   112.44123692   177.67555540
 C     53  52  51     1.535162712251   114.97892410   185.78419736
 C     54  53  52     1.531025231347   111.79895102   295.86302091
 C     54  53  52     1.535110829703   110.12421088   170.89546266
 C     56  54  53     1.527985241248   115.12482927   189.93479190
 C     57  56  54     1.528059843717   112.67145119   175.80152829
 C     58  57  56     1.535207680015   115.15201269   184.36514357
 C     59  58  57     1.530735740720   111.75167665   294.87378157
 C     59  58  57     1.535104571984   110.14820679   169.92583379
 C     61  59  58     1.528021002671   115.22572765   188.99215594
 C     62  61  59     1.527987654961   112.66020692   175.06684628
 C     63  62  61     1.534263987452   115.19651454   184.22607196
 C     64  63  62     1.530354066497   112.40875057   296.34072602
 C     64  63  62     1.530003248709   110.45258640   172.42960905
 H      3   1   2     1.081087118111   178.22904167   254.25841233
 H      4   1  34     1.078896998460   178.66999951   195.24121964
 H      5   1   2     1.082703074296   179.35529804   265.21365120
 H      8   7   6     1.091322363625   110.11642317   130.73935530
 H      9   8   7     1.093198737172   111.22043992   226.33211750
 H     11   9   8     1.091322069902   111.26088326   184.14167391
 H     11   9   8     1.091913112386   110.63067436   304.35879309
 H     11   9   8     1.092285711510   110.43463281    63.94681169
 H     12   8   7     1.094069682986   108.36514711   175.82700546
 H     12   8   7     1.090060544107   109.92221944   291.20274690
 H     13  12   8     1.095310260924   110.08619827   303.74708667
 H     13  12   8     1.090271423672   112.47432966    62.07341105
 H     22  19  18     1.090234665521   111.79615968   130.59689718
 H     22  19  18     1.092902623323   111.87995063   250.76370436
 H     22  19  18     1.087865281676   111.25864342    10.84542860
 H     25  23  20     1.087813424053   108.13087679   193.24939594
 H     25  23  20     1.090379910872   112.06919779   314.66374505
 H     25  23  20     1.092055159606   110.50754805    74.56045501
 H     28  27  26     1.092439327820   110.28311461   228.40621121
 H     29  28  27     1.092978321018   110.56698860   132.09706977
 H     31  28  27     1.092423451422   110.46789319   181.85517930
 H     31  28  27     1.092578376366   110.72768338   301.64546609
 H     31  28  27     1.090991084792   111.17086532    61.71455896
 H     32  29  28     1.093989303176   108.48655718   182.37815009
 H     32  29  28     1.094838061988   107.92861482   297.20798416
 H     33  32  29     1.091294590087   110.53826935   179.90369813
 H     33  32  29     1.091665379266   111.91938455   299.68319771
 H     33  32  29     1.091671815044   111.20540736    60.34421836
 H     39  36  35     1.088799048765   110.48320409   175.04821543
 H     39  36  35     1.094011147724   111.32130243   294.98593094
 H     39  36  35     1.093433088526   111.54865231    54.51817351
 H     42   2   1     1.091849334508   113.37941207   111.51741459
 H     46  45  43     1.086398841088   105.54728233   178.88567943
 H     46  45  43     1.089936063876   110.53595156   298.60678678
 H     46  45  43     1.089455128400   110.27975468    59.38828671
 H     47  16  14     1.088773145007   108.19933702    50.53344915
 H     47  16  14     1.088068223579   103.23631702   166.10474124
 H     48  47  16     1.083628784739   115.83976796   104.08948511
 H     50  49  48     1.093983941695   110.45088940   229.16933306
 H     50  49  48     1.088226384394   112.97161483   351.00163982
 H     50  49  48     1.093651004596   110.73587103   111.23748701
 H     51  49  48     1.092778788349   109.29289796    14.22799128
 H     51  49  48     1.096778797393   109.44133268   130.93652465
 H     52  51  49     1.092373284981   109.52725167   300.38175508
 H     52  51  49     1.095341275632   108.62729540    56.40608257
 H     53  52  51     1.095445035900   108.48320544   307.33132390
 H     53  52  51     1.097177209814   109.45417681    62.60794460
 H     54  53  52     1.098454942184   107.36408651    54.19429773
 H     55  54  53     1.090576583699   111.75846323   177.91528680
 H     55  54  53     1.094569733198   110.45303052   297.83874869
 H     55  54  53     1.090762170152   111.74678440    57.80211755
 H     56  54  53     1.095559821910   108.44451781   311.69982186
 H     56  54  53     1.097259055719   108.97760134    66.63796595
 H     57  56  54     1.091937445561   109.77554527   298.50983537
 H     57  56  54     1.096906114294   109.04324722    54.56233822
 H     58  57  56     1.095613864776   108.53095530   306.13502026
 H     58  57  56     1.097243751693   109.36323617    61.30525587
 H     59  58  57     1.098597074055   107.44770152    53.20559313
 H     60  59  58     1.090626968696   111.76967582   177.95116219
 H     60  59  58     1.094593528292   110.43686888   297.89346797
 H     60  59  58     1.090706996051   111.76467176    57.82550027
 H     61  59  58     1.095655424138   108.41286796   310.76719854
 H     61  59  58     1.097285926847   109.00396266    65.64718767
 H     62  61  59     1.092076323728   109.83485239   297.58197610
 H     62  61  59     1.096968748863   109.09748210    53.69540355
 H     63  62  61     1.095863261513   108.63552213   306.11394692
 H     63  62  61     1.097426304316   109.35985726    61.33229487
 H     64  63  62     1.097633898378   107.54332761    54.98227989
 H     65  64  63     1.092421699897   110.94023736   180.99111508
 H     65  64  63     1.094485645193   110.61227749   300.35308129
 H     65  64  63     1.090963986591   112.15366258    60.71309618
 H     66  64  63     1.092471391248   111.37373074   182.24209523
 H     66  64  63     1.092496296978   111.33562207   302.74848061
 H     66  64  63     1.094177512146   110.73766633    62.51731883

---------------------------
INTERNAL COORDINATES (A.U.)
---------------------------
 Mg     0   0   0     0.000000000000     0.00000000     0.00000000
 C      1   0   0     6.505991797524     0.00000000     0.00000000
 C      1   2   0     6.409065304457    89.27379526     0.00000000
 C      1   2   3     6.386850086860   178.68423197   127.32406749
 C      1   2   3     6.564096966928    89.40887264   180.53794777
 N      1   2   3     4.047288446795    43.58003832     0.11090155
 C      6   1   2     2.578893030389   127.41948713     1.07056829
 C      7   6   1     2.856723076216   111.43666168   176.00992723
 C      8   7   6     2.915653423005   102.10315393    13.46498825
 C      6   1   2     2.554696109289   122.48131868   182.42025883
 C      9   8   7     2.896104958687   112.45554488   104.11554453
 C      8   7   6     2.906360825736   112.30863114   250.91324535
 C     12   8   7     2.883361375856   114.02584502    53.55888874
 C     13  12   8     2.854463610248   112.26203018   185.25100837
 O     14  13  12     2.279277019441   124.91634702    27.21103301
 O     14  13  12     2.538733837904   111.24274088   205.97397103
 N      1   2   3     3.814366925553   134.95416498     2.25914019
 C     17   1   2     2.587588374058   126.21998472   357.41567272
 C     18  17   1     2.713971100383   109.92181242   180.07534682
 C     19  18  17     2.624083454077   106.43211159   359.96393603
 C     17   1   2     2.579034464300   126.01833725   177.40321797
 C     19  18  17     2.824432148189   124.02723872   181.27915309
 C     20  19  18     2.786361427781   128.85645071   179.71182275
 O     23  20  19     2.307250287016   121.87679999   164.28552897
 C     23  20  19     2.864719113314   119.39966630   343.32681133
 N      1   2   3     3.978164954745   133.35062424   179.73527050
 C     26   1   2     2.552888687702   123.04757831   180.13538757
 C     27  26   1     2.864650223531   111.29225075   184.78404961
 C     28  27  26     2.913267418852   102.47179288   347.04668041
 C     26   1   2     2.572461807314   126.46498462   359.75567540
 C     28  27  26     2.895588403900   111.18551198   107.93223998
 C     29  28  27     2.911284656720   113.89877928   253.64836923
 C     32  29  28     2.886078106402   114.67265954    59.92822059
 N      1   2   3     3.786617777878    46.27529949   181.22260356
 C     34   1   2     2.615254653263   131.90213610   179.70637604
 C     35  34   1     2.723093427866   110.46196832   181.46862980
 C     36  35  34     2.625301208774   104.75952235   359.71581260
 C     34   1   2     2.531964459500   122.23746672     0.94590271
 C     36  35  34     2.815791501295   126.78392204   179.45899266
 C     37  36  35     2.746981637170   144.14207541   180.44565283
 O     40  37  36     2.281452047607   130.77273245   357.90957225
 C      2   1   3     2.867748527220   164.53417584   179.98171429
 C     42   2   1     2.854403820509   114.45640537   236.65105402
 O     43  42   2     2.279280019613   125.14517354    25.93115015
 O     43  42   2     2.533406400642   110.83793086   204.57463086
 C     45  43  42     2.712535337980   115.92326041   185.66164535
 C     16  14  13     2.759617098303   116.07910134   180.41601552
 C     47  16  14     2.826859848010   112.72042119   287.76467119
 C     48  47  16     2.523845176134   125.37145776   286.60779164
 C     49  48  47     2.839368082549   123.69258929   359.50974429
 C     49  48  47     2.846808298409   120.23168817   177.26804634
 C     51  49  48     2.902338326063   113.37278381   252.54242440
 C     52  51  49     2.886279408555   112.44123692   177.67555540
 C     53  52  51     2.901037097162   114.97892410   185.78419736
 C     54  53  52     2.893218391368   111.79895102   295.86302091
 C     54  53  52     2.900939053356   110.12421088   170.89546266
 C     56  54  53     2.887473642633   115.12482927   189.93479190
 C     57  56  54     2.887614620867   112.67145119   175.80152829
 C     58  57  56     2.901122073921   115.15201269   184.36514357
 C     59  58  57     2.892671333365   111.75167665   294.87378157
 C     59  58  57     2.900927227981   110.14820679   169.92583379
 C     61  59  58     2.887541221928   115.22572765   188.99215594
 C     62  61  59     2.887478203888   112.66020692   175.06684628
 C     63  62  61     2.899338753422   115.19651454   184.22607196
 C     64  63  62     2.891950073612   112.40875057   296.34072602
 C     64  63  62     2.891287124070   110.45258640   172.42960905
 H      3   1   2     2.042958580139   178.22904167   254.25841233
 H      4   1  34     2.038819853800   178.66999951   195.24121964
 H      5   1   2     2.046012294774   179.35529804   265.21365120
 H      8   7   6     2.062300391075   110.11642317   130.73935530
 H      9   8   7     2.065846223204   111.22043992   226.33211750
 H     11   9   8     2.062299836019   111.26088326   184.14167391
 H     11   9   8     2.063416744447   110.63067436   304.35879309
 H     11   9   8     2.064120854749   110.43463281    63.94681169
 H     12   8   7     2.067492072269   108.36514711   175.82700546
 H     12   8   7     2.059915897756   109.92221944   291.20274690
 H     13  12   8     2.069836424820   110.08619827   303.74708667
 H     13  12   8     2.060314402381   112.47432966    62.07341105
 H     22  19  18     2.060244939543   111.79615968   130.59689718
 H     22  19  18     2.065286649124   111.87995063   250.76370436
 H     22  19  18     2.055767452968   111.25864342    10.84542860
 H     25  23  20     2.055669456264   108.13087679   193.24939594
 H     25  23  20     2.060519413477   112.06919779   314.66374505
 H     25  23  20     2.063685174790   110.50754805    74.56045501
 H     28  27  26     2.064411147505   110.28311461   228.40621121
 H     29  28  27     2.065429697037   110.56698860   132.09706977
 H     31  28  27     2.064381145461   110.46789319   181.85517930
 H     31  28  27     2.064673911177   110.72768338   301.64546609
 H     31  28  27     2.061674364807   111.17086532    61.71455896
 H     32  29  28     2.067340176442   108.48655718   182.37815009
 H     32  29  28     2.068944098150   107.92861482   297.20798416
 H     33  32  29     2.062247906694   110.53826935   179.90369813
 H     33  32  29     2.062948596695   111.91938455   299.68319771
 H     33  32  29     2.062960758553   111.20540736    60.34421836
 H     39  36  35     2.057532017041   110.48320409   175.04821543
 H     39  36  35     2.067381456656   111.32130243   294.98593094
 H     39  36  35     2.066289083081   111.54865231    54.51817351
 H     42   2   1     2.063296221725   113.37941207   111.51741459
 H     46  45  43     2.052996281866   105.54728233   178.88567943
 H     46  45  43     2.059680664210   110.53595156   298.60678678
 H     46  45  43     2.058771827873   110.27975468    59.38828671
 H     47  16  14     2.057483066032   108.19933702    50.53344915
 H     47  16  14     2.056150957587   103.23631702   166.10474124
 H     48  47  16     2.047761633991   115.83976796   104.08948511
 H     50  49  48     2.067330044711   110.45088940   229.16933306
 H     50  49  48     2.056449838212   112.97161483   351.00163982
 H     50  49  48     2.066700884774   110.73587103   111.23748701
 H     51  49  48     2.065052634938   109.29289796    14.22799128
 H     51  49  48     2.072611556565   109.44133268   130.93652465
 H     52  51  49     2.064286344627   109.52725167   300.38175508
 H     52  51  49     2.069895034124   108.62729540    56.40608257
 H     53  52  51     2.070091112614   108.48320544   307.33132390
 H     53  52  51     2.073364446928   109.45417681    62.60794460
 H     54  53  52     2.075779011180   107.36408651    54.19429773
 H     55  54  53     2.060891071258   111.75846323   177.91528680
 H     55  54  53     2.068437030224   110.45303052   297.83874869
 H     55  54  53     2.061241778830   111.74678440    57.80211755
 H     56  54  53     2.070308026738   108.44451781   311.69982186
 H     56  54  53     2.073519113274   108.97760134    66.63796595
 H     57  56  54     2.063462727485   109.77554527   298.50983537
 H     57  56  54     2.072852150640   109.04324722    54.56233822
 H     58  57  56     2.070410152953   108.53095530   306.13502026
 H     58  57  56     2.073490192857   109.36323617    61.30525587
 H     59  58  57     2.076047601491   107.44770152    53.20559313
 H     60  59  58     2.060986285105   111.76967582   177.95116219
 H     60  59  58     2.068481996434   110.43686888   297.89346797
 H     60  59  58     2.061137514889   111.76467176    57.82550027
 H     61  59  58     2.070488688765   108.41286796   310.76719854
 H     61  59  58     2.073569892347   109.00396266    65.64718767
 H     62  61  59     2.063725169186   109.83485239   297.58197610
 H     62  61  59     2.072970512822   109.09748210    53.69540355
 H     63  62  61     2.070881444485   108.63552213   306.11394692
 H     63  62  61     2.073835167319   109.35985726    61.33229487
 H     64  63  62     2.074227463243   107.54332761    54.98227989
 H     65  64  63     2.064377835557   110.94023736   180.99111508
 H     65  64  63     2.068278126922   110.61227749   300.35308129
 H     65  64  63     2.061623156628   112.15366258    60.71309618
 H     66  64  63     2.064471738602   111.37373074   182.24209523
 H     66  64  63     2.064518803611   111.33562207   302.74848061
 H     66  64  63     2.067695839851   110.73766633    62.51731883

---------------------
BASIS SET INFORMATION
---------------------
There are 5 groups of distinct atoms

 Group   1 Type Mg  : 14s8p3d contracted to 5s4p3d pattern {73211/5111/111}
 Group   2 Type C   : 11s6p2d1f contracted to 5s3p2d1f pattern {62111/411/11/1}
 Group   3 Type N   : 11s6p2d1f contracted to 5s3p2d1f pattern {62111/411/11/1}
 Group   4 Type O   : 11s6p2d1f contracted to 5s3p2d1f pattern {62111/411/11/1}
 Group   5 Type H   : 5s1p contracted to 3s1p pattern {311/1}

Atom   0Mg   basis set group =>   1
Atom   1C    basis set group =>   2
Atom   2C    basis set group =>   2
Atom   3C    basis set group =>   2
Atom   4C    basis set group =>   2
Atom   5N    basis set group =>   3
Atom   6C    basis set group =>   2
Atom   7C    basis set group =>   2
Atom   8C    basis set group =>   2
Atom   9C    basis set group =>   2
Atom  10C    basis set group =>   2
Atom  11C    basis set group =>   2
Atom  12C    basis set group =>   2
Atom  13C    basis set group =>   2
Atom  14O    basis set group =>   4
Atom  15O    basis set group =>   4
Atom  16N    basis set group =>   3
Atom  17C    basis set group =>   2
Atom  18C    basis set group =>   2
Atom  19C    basis set group =>   2
Atom  20C    basis set group =>   2
Atom  21C    basis set group =>   2
Atom  22C    basis set group =>   2
Atom  23O    basis set group =>   4
Atom  24C    basis set group =>   2
Atom  25N    basis set group =>   3
Atom  26C    basis set group =>   2
Atom  27C    basis set group =>   2
Atom  28C    basis set group =>   2
Atom  29C    basis set group =>   2
Atom  30C    basis set group =>   2
Atom  31C    basis set group =>   2
Atom  32C    basis set group =>   2
Atom  33N    basis set group =>   3
Atom  34C    basis set group =>   2
Atom  35C    basis set group =>   2
Atom  36C    basis set group =>   2
Atom  37C    basis set group =>   2
Atom  38C    basis set group =>   2
Atom  39C    basis set group =>   2
Atom  40O    basis set group =>   4
Atom  41C    basis set group =>   2
Atom  42C    basis set group =>   2
Atom  43O    basis set group =>   4
Atom  44O    basis set group =>   4
Atom  45C    basis set group =>   2
Atom  46C    basis set group =>   2
Atom  47C    basis set group =>   2
Atom  48C    basis set group =>   2
Atom  49C    basis set group =>   2
Atom  50C    basis set group =>   2
Atom  51C    basis set group =>   2
Atom  52C    basis set group =>   2
Atom  53C    basis set group =>   2
Atom  54C    basis set group =>   2
Atom  55C    basis set group =>   2
Atom  56C    basis set group =>   2
Atom  57C    basis set group =>   2
Atom  58C    basis set group =>   2
Atom  59C    basis set group =>   2
Atom  60C    basis set group =>   2
Atom  61C    basis set group =>   2
Atom  62C    basis set group =>   2
Atom  63C    basis set group =>   2
Atom  64C    basis set group =>   2
Atom  65C    basis set group =>   2
Atom  66H    basis set group =>   5
Atom  67H    basis set group =>   5
Atom  68H    basis set group =>   5
Atom  69H    basis set group =>   5
Atom  70H    basis set group =>   5
Atom  71H    basis set group =>   5
Atom  72H    basis set group =>   5
Atom  73H    basis set group =>   5
Atom  74H    basis set group =>   5
Atom  75H    basis set group =>   5
Atom  76H    basis set group =>   5
Atom  77H    basis set group =>   5
Atom  78H    basis set group =>   5
Atom  79H    basis set group =>   5
Atom  80H    basis set group =>   5
Atom  81H    basis set group =>   5
Atom  82H    basis set group =>   5
Atom  83H    basis set group =>   5
Atom  84H    basis set group =>   5
Atom  85H    basis set group =>   5
Atom  86H    basis set group =>   5
Atom  87H    basis set group =>   5
Atom  88H    basis set group =>   5
Atom  89H    basis set group =>   5
Atom  90H    basis set group =>   5
Atom  91H    basis set group =>   5
Atom  92H    basis set group =>   5
Atom  93H    basis set group =>   5
Atom  94H    basis set group =>   5
Atom  95H    basis set group =>   5
Atom  96H    basis set group =>   5
Atom  97H    basis set group =>   5
Atom  98H    basis set group =>   5
Atom  99H    basis set group =>   5
Atom 100H    basis set group =>   5
Atom 101H    basis set group =>   5
Atom 102H    basis set group =>   5
Atom 103H    basis set group =>   5
Atom 104H    basis set group =>   5
Atom 105H    basis set group =>   5
Atom 106H    basis set group =>   5
Atom 107H    basis set group =>   5
Atom 108H    basis set group =>   5
Atom 109H    basis set group =>   5
Atom 110H    basis set group =>   5
Atom 111H    basis set group =>   5
Atom 112H    basis set group =>   5
Atom 113H    basis set group =>   5
Atom 114H    basis set group =>   5
Atom 115H    basis set group =>   5
Atom 116H    basis set group =>   5
Atom 117H    basis set group =>   5
Atom 118H    basis set group =>   5
Atom 119H    basis set group =>   5
Atom 120H    basis set group =>   5
Atom 121H    basis set group =>   5
Atom 122H    basis set group =>   5
Atom 123H    basis set group =>   5
Atom 124H    basis set group =>   5
Atom 125H    basis set group =>   5
Atom 126H    basis set group =>   5
Atom 127H    basis set group =>   5
Atom 128H    basis set group =>   5
Atom 129H    basis set group =>   5
Atom 130H    basis set group =>   5
Atom 131H    basis set group =>   5
Atom 132H    basis set group =>   5
Atom 133H    basis set group =>   5
Atom 134H    basis set group =>   5
Atom 135H    basis set group =>   5
Atom 136H    basis set group =>   5
Atom 137H    basis set group =>   5
Atom 138H    basis set group =>   5
Atom 139H    basis set group =>   5
---------------------------------
AUXILIARY/J BASIS SET INFORMATION
---------------------------------
There are 5 groups of distinct atoms

 Group   1 Type Mg  : 14s5p5d2f1g contracted to 8s4p4d1f1g pattern {71111111/2111/2111/2/1}
 Group   2 Type C   : 12s5p4d2f1g contracted to 6s4p3d1f1g pattern {711111/2111/211/2/1}
 Group   3 Type N   : 12s5p4d2f1g contracted to 6s4p3d1f1g pattern {711111/2111/211/2/1}
 Group   4 Type O   : 12s5p4d2f1g contracted to 6s4p3d1f1g pattern {711111/2111/211/2/1}
 Group   5 Type H   : 5s2p1d contracted to 3s1p1d pattern {311/2/1}

Atom   0Mg   basis set group =>   1
Atom   1C    basis set group =>   2
Atom   2C    basis set group =>   2
Atom   3C    basis set group =>   2
Atom   4C    basis set group =>   2
Atom   5N    basis set group =>   3
Atom   6C    basis set group =>   2
Atom   7C    basis set group =>   2
Atom   8C    basis set group =>   2
Atom   9C    basis set group =>   2
Atom  10C    basis set group =>   2
Atom  11C    basis set group =>   2
Atom  12C    basis set group =>   2
Atom  13C    basis set group =>   2
Atom  14O    basis set group =>   4
Atom  15O    basis set group =>   4
Atom  16N    basis set group =>   3
Atom  17C    basis set group =>   2
Atom  18C    basis set group =>   2
Atom  19C    basis set group =>   2
Atom  20C    basis set group =>   2
Atom  21C    basis set group =>   2
Atom  22C    basis set group =>   2
Atom  23O    basis set group =>   4
Atom  24C    basis set group =>   2
Atom  25N    basis set group =>   3
Atom  26C    basis set group =>   2
Atom  27C    basis set group =>   2
Atom  28C    basis set group =>   2
Atom  29C    basis set group =>   2
Atom  30C    basis set group =>   2
Atom  31C    basis set group =>   2
Atom  32C    basis set group =>   2
Atom  33N    basis set group =>   3
Atom  34C    basis set group =>   2
Atom  35C    basis set group =>   2
Atom  36C    basis set group =>   2
Atom  37C    basis set group =>   2
Atom  38C    basis set group =>   2
Atom  39C    basis set group =>   2
Atom  40O    basis set group =>   4
Atom  41C    basis set group =>   2
Atom  42C    basis set group =>   2
Atom  43O    basis set group =>   4
Atom  44O    basis set group =>   4
Atom  45C    basis set group =>   2
Atom  46C    basis set group =>   2
Atom  47C    basis set group =>   2
Atom  48C    basis set group =>   2
Atom  49C    basis set group =>   2
Atom  50C    basis set group =>   2
Atom  51C    basis set group =>   2
Atom  52C    basis set group =>   2
Atom  53C    basis set group =>   2
Atom  54C    basis set group =>   2
Atom  55C    basis set group =>   2
Atom  56C    basis set group =>   2
Atom  57C    basis set group =>   2
Atom  58C    basis set group =>   2
Atom  59C    basis set group =>   2
Atom  60C    basis set group =>   2
Atom  61C    basis set group =>   2
Atom  62C    basis set group =>   2
Atom  63C    basis set group =>   2
Atom  64C    basis set group =>   2
Atom  65C    basis set group =>   2
Atom  66H    basis set group =>   5
Atom  67H    basis set group =>   5
Atom  68H    basis set group =>   5
Atom  69H    basis set group =>   5
Atom  70H    basis set group =>   5
Atom  71H    basis set group =>   5
Atom  72H    basis set group =>   5
Atom  73H    basis set group =>   5
Atom  74H    basis set group =>   5
Atom  75H    basis set group =>   5
Atom  76H    basis set group =>   5
Atom  77H    basis set group =>   5
Atom  78H    basis set group =>   5
Atom  79H    basis set group =>   5
Atom  80H    basis set group =>   5
Atom  81H    basis set group =>   5
Atom  82H    basis set group =>   5
Atom  83H    basis set group =>   5
Atom  84H    basis set group =>   5
Atom  85H    basis set group =>   5
Atom  86H    basis set group =>   5
Atom  87H    basis set group =>   5
Atom  88H    basis set group =>   5
Atom  89H    basis set group =>   5
Atom  90H    basis set group =>   5
Atom  91H    basis set group =>   5
Atom  92H    basis set group =>   5
Atom  93H    basis set group =>   5
Atom  94H    basis set group =>   5
Atom  95H    basis set group =>   5
Atom  96H    basis set group =>   5
Atom  97H    basis set group =>   5
Atom  98H    basis set group =>   5
Atom  99H    basis set group =>   5
Atom 100H    basis set group =>   5
Atom 101H    basis set group =>   5
Atom 102H    basis set group =>   5
Atom 103H    basis set group =>   5
Atom 104H    basis set group =>   5
Atom 105H    basis set group =>   5
Atom 106H    basis set group =>   5
Atom 107H    basis set group =>   5
Atom 108H    basis set group =>   5
Atom 109H    basis set group =>   5
Atom 110H    basis set group =>   5
Atom 111H    basis set group =>   5
Atom 112H    basis set group =>   5
Atom 113H    basis set group =>   5
Atom 114H    basis set group =>   5
Atom 115H    basis set group =>   5
Atom 116H    basis set group =>   5
Atom 117H    basis set group =>   5
Atom 118H    basis set group =>   5
Atom 119H    basis set group =>   5
Atom 120H    basis set group =>   5
Atom 121H    basis set group =>   5
Atom 122H    basis set group =>   5
Atom 123H    basis set group =>   5
Atom 124H    basis set group =>   5
Atom 125H    basis set group =>   5
Atom 126H    basis set group =>   5
Atom 127H    basis set group =>   5
Atom 128H    basis set group =>   5
Atom 129H    basis set group =>   5
Atom 130H    basis set group =>   5
Atom 131H    basis set group =>   5
Atom 132H    basis set group =>   5
Atom 133H    basis set group =>   5
Atom 134H    basis set group =>   5
Atom 135H    basis set group =>   5
Atom 136H    basis set group =>   5
Atom 137H    basis set group =>   5
Atom 138H    basis set group =>   5
Atom 139H    basis set group =>   5


           ************************************************************
           *        Program running with 4 parallel MPI-processes     *
           *              working on a common directory               *
           ************************************************************
------------------------------------------------------------------------------
                             ORCA STARTUP CALCULATIONS
                           -- RI-GTO INTEGRALS CHOSEN --
------------------------------------------------------------------------------
------------------------------------------------------------------------------
                   ___                                                        
                  /   \      - P O W E R E D   B Y -                         
                 /     \                                                     
                 |  |  |   _    _      __       _____    __    __             
                 |  |  |  | |  | |    /  \     |  _  \  |  |  /  |          
                  \  \/   | |  | |   /    \    | | | |  |  | /  /          
                 / \  \   | |__| |  /  /\  \   | |_| |  |  |/  /          
                |  |  |   |  __  | /  /__\  \  |    /   |      \           
                |  |  |   | |  | | |   __   |  |    \   |  |\   \          
                \     /   | |  | | |  |  |  |  | |\  \  |  | \   \       
                 \___/    |_|  |_| |__|  |__|  |_| \__\ |__|  \__/        
                                                                              
                      - O R C A' S   B I G   F R I E N D -                    
                                      &                                       
                       - I N T E G R A L  F E E D E R -                       
                                                                              
 v1 FN, 2020, v2 2021, v3 2022-2024                                           
------------------------------------------------------------------------------


----------------------
SHARK INTEGRAL PACKAGE
----------------------

Number of atoms                             ...    140
Number of basis functions                   ...   2491
Number of shells                            ...   1023
Maximum angular momentum                    ...      3
Integral batch strategy                     ... SHARK/LIBINT Hybrid
RI-J (if used) integral strategy            ... SPLIT-RIJ (Revised 2003 algorithm where possible)
Printlevel                                  ...      1
Contraction scheme used                     ... SEGMENTED contraction
Prescreening option                         ... SCHWARTZ
   Thresh                                   ... 2.500e-11
   Tcut                                     ... 2.500e-12
   Tpresel                                  ... 2.500e-12 
Coulomb Range Separation                    ... NOT USED
Exchange Range Separation                   ... NOT USED
Multipole approximations                    ... NOT USED
Finite Nucleus Model                        ... NOT USED
CABS basis                                  ... NOT available
Auxiliary Coulomb fitting basis             ... AVAILABLE
   # of basis functions in Aux-J            ...   4055
   # of shells in Aux-J                     ...   1363
   Maximum angular momentum in Aux-J        ...      4
Auxiliary J/K fitting basis                 ... NOT available
Auxiliary Correlation fitting basis         ... NOT available
Auxiliary 'external' fitting basis          ... NOT available

Checking pre-screening integrals            ... done (  0.0 sec) Dimension = 1023
   => SHARK Basis and OBASIS are compatible. Storing Pre-screening
Shell pair information
Shell pair cut-off parameter TPreSel        ...   2.5e-12
Total number of shell pairs                 ...    523776
Shell pairs after pre-screening             ...    164136
Total number of primitive shell pairs       ...   1567252
Primitive shell pairs kept                  ...    307296
          la=0 lb=0:  46449 shell pairs
          la=1 lb=0:  50218 shell pairs
          la=1 lb=1:  13669 shell pairs
          la=2 lb=0:  21579 shell pairs
          la=2 lb=1:  11988 shell pairs
          la=2 lb=2:   2659 shell pairs
          la=3 lb=0:   9541 shell pairs
          la=3 lb=1:   5353 shell pairs
          la=3 lb=2:   2192 shell pairs
          la=3 lb=3:    488 shell pairs

Checking whether 4 symmetric matrices of dimension 2491 fit in memory
:Max Core in MB      =   2200.00
 MB in use           =    194.75
 MB left             =   2005.25
 MB needed           =     94.72
 Data fit in memory  = YES
Calculating RI/J V-Matrix + Cholesky decomp.... done (  1.7 sec)
Calculating Nuclear repulsion               ... done (  0.0 sec) ENN=   9704.014104954542 Eh

Diagonalization of the overlap matrix:
Smallest eigenvalue                        ... 3.958e-06
Time for diagonalization                   ...    2.936 sec
Threshold for overlap eigenvalues          ... 1.000e-07
Number of eigenvalues below threshold      ... 0
Time for construction of square roots      ...    2.767 sec
Total time needed                          ...    5.779 sec

-------------------
DFT GRID GENERATION
-------------------

General Integration Accuracy     IntAcc      ... 4.959
Radial Grid Type                 RadialGrid  ... OptM3 with GC (2021)
Angular Grid (max. ang.)         AngularGrid ... 6 (Lebedev-590)
Angular grid pruning method      GridPruning ... 4 (adaptive)
Weight generation scheme         WeightScheme... mBecke (2022)
Basis function cutoff            BFCut       ... 1.0000e-11
Integration weight cutoff        WCut        ... 1.0000e-14
Partially contracted basis set               ... off
Rotationally invariant grid construction     ... off
Angular grids for H and He will be reduced by one unit

Total number of grid points                  ...  1550343
Total number of batches                      ...    24295
Average number of points per batch           ...       63
Average number of grid points per atom       ...    11074

--------------------
COSX GRID GENERATION
--------------------

GRIDX 1
-------
General Integration Accuracy     IntAcc      ... 4.020
Radial Grid Type                 RadialGrid  ... OptM3 with GC (2021)
Angular Grid (max. ang.)         AngularGrid ... 2 (Lebedev-110)
Angular grid pruning method      GridPruning ... 4 (adaptive)
Weight generation scheme         WeightScheme... mBecke (2022)
Basis function cutoff            BFCut       ... 1.0000e-11
Integration weight cutoff        WCut        ... 1.0000e-14
Partially contracted basis set               ... on
Rotationally invariant grid construction     ... off
Angular grids for H and He will be reduced by one unit

Total number of grid points                  ...   166667
Total number of batches                      ...     1381
Average number of points per batch           ...      120
Average number of grid points per atom       ...     1190
UseSFitting                                  ... on

GRIDX 2
-------
General Integration Accuracy     IntAcc      ... 4.338
Radial Grid Type                 RadialGrid  ... OptM3 with GC (2021)
Angular Grid (max. ang.)         AngularGrid ... 3 (Lebedev-194)
Angular grid pruning method      GridPruning ... 4 (adaptive)
Weight generation scheme         WeightScheme... mBecke (2022)
Basis function cutoff            BFCut       ... 1.0000e-11
Integration weight cutoff        WCut        ... 1.0000e-14
Partially contracted basis set               ... on
Rotationally invariant grid construction     ... off
Angular grids for H and He will be reduced by one unit

Total number of grid points                  ...   361890
Total number of batches                      ...     2898
Average number of points per batch           ...      124
Average number of grid points per atom       ...     2585
UseSFitting                                  ... on

GRIDX 3
-------
General Integration Accuracy     IntAcc      ... 4.871
Radial Grid Type                 RadialGrid  ... OptM3 with GC (2021)
Angular Grid (max. ang.)         AngularGrid ... 4 (Lebedev-302)
Angular grid pruning method      GridPruning ... 4 (adaptive)
Weight generation scheme         WeightScheme... mBecke (2022)
Basis function cutoff            BFCut       ... 1.0000e-11
Integration weight cutoff        WCut        ... 1.0000e-14
Partially contracted basis set               ... on
Rotationally invariant grid construction     ... off
Angular grids for H and He will be reduced by one unit

Total number of grid points                  ...   686566
Total number of batches                      ...     5439
Average number of points per batch           ...      126
Average number of grid points per atom       ...     4904
UseSFitting                                  ... on
Grids setup in  71.5 sec
Initializing property integral containers    ... done (  0.0 sec)

SHARK setup successfully completed in  83.1 seconds

Maximum memory used throughout the entire STARTUP-calculation: 552.1 MB


           ************************************************************
           *        Program running with 4 parallel MPI-processes     *
           *              working on a common directory               *
           ************************************************************
-------------------------------------------------------------------------------
                                 ORCA GUESS
                   Start orbitals & Density for SCF / CASSCF
-------------------------------------------------------------------------------

------------
SCF SETTINGS
------------
Hamiltonian:
 Density Functional     Method          .... DFT(GTOs)
 Exchange Functional    Exchange        .... PBE
   PBE kappa parameter   XKappa         ....  0.804000
   PBE mue parameter    XMuePBE         ....  0.219520
 Correlation Functional Correlation     .... PBE
   PBE beta parameter  CBetaPBE         ....  0.066725
 LDA part of GGA corr.  LDAOpt          .... PW91-LDA
 Gradients option       PostSCFGGA      .... off
 Hybrid DFT is turned on
   Fraction HF Exchange ScalHFX         ....  0.250000
   Scaling of DF-GGA-X  ScalDFX         ....  0.750000
   Scaling of DF-GGA-C  ScalDFC         ....  1.000000
   Scaling of DF-LDA-C  ScalLDAC        ....  1.000000
   Perturbative correction              ....  0.000000
   NL short-range parameter             ....  6.900000
 RI-approximation to the Coulomb term is turned on
   Number of AuxJ basis functions       .... 4055
   RIJ-COSX (HFX calculated with COS-X)).... on


General Settings:
 Integral files         IntName         .... tddft
 Hartree-Fock type      HFTyp           .... RHF
 Total Charge           Charge          ....    0
 Multiplicity           Mult            ....    1
 Number of Electrons    NEL             ....  492
 Basis Dimension        Dim             .... 2491
 Nuclear Repulsion      ENuc            ....   9704.0141049545 Eh

Convergence Acceleration:
 AO-DIIS                CNVDIIS         .... on
   Start iteration      DIISMaxIt       ....    12
   Startup error        DIISStart       ....  0.200000
   # of expansion vecs  DIISMaxEq       ....     5
   Bias factor          DIISBfac        ....   1.050
   Max. coefficient     DIISMaxC        ....  10.000
 MO-DIIS                CNVKDIIS        .... off
 Trust-Rad. Augm. Hess. CNVTRAH         .... auto
   Auto Start mean grad. ratio tolernc. ....  1.125000
   Auto Start start iteration           ....    50
   Auto Start num. interpolation iter.  ....    10
   Max. Number of Micro iterations      ....    24
   Max. Number of Macro iterations      .... Maxiter - #DIIS iter
   Number of Davidson start vectors     ....     2
   Converg. threshold    (grad. norm)   ....   1.000e-05
   Grad. Scal. Fac. for Micro threshold ....   0.100
   Minimum threshold for Micro iter.    ....   1.000e-02
   NR start threshold (gradient norm)   ....   1.000e-04
   Initial trust radius                 ....   0.400
   Minimum AH scaling param. (alpha)    ....   1.000
   Maximum AH scaling param. (alpha)    .... 1000.000
   Quad. conv. algorithm                .... NR
   White noise on init. David. guess    .... on
   Maximum white noise                  ....   0.010
   Pseudo random numbers                .... off
   Inactive MOs                         .... canonical
   Orbital update algorithm             .... Taylor
   Preconditioner                       .... Diag
   Full preconditioner red. dimension   ....   250
 SOSCF                 CNVSOSCF           .... on
   Start iteration     SOSCFMaxIt         ....   150
   Startup grad/error  SOSCFStart         ....  0.003300
   Hessian update      SOSCFHessUp        .... L-BFGS
   Autom. constraints  SOSCFAutoConstrain .... off
 Level Shifting         CNVShift        .... on
   Level shift para.    LevelShift      ....    0.2500
   Turn off err/grad.   ShiftErr        ....    0.0010
 Zerner damping         CNVZerner       .... off
 Static damping         CNVDamp         .... on
   Fraction old density DampFac         ....    0.7000
   Max. Damping (<1)    DampMax         ....    0.9800
   Min. Damping (>=0)   DampMin         ....    0.0000
   Turn off err/grad.   DampErr         ....    0.1000

SCF Procedure:
 Maximum # iterations   MaxIter         ....   125
 SCF integral mode      SCFMode         .... Direct
   Integral package                     .... SHARK and LIBINT hybrid scheme
 Reset frequency        DirectResetFreq ....    20
 Integral Threshold     Thresh          ....  2.500e-11 Eh
 Primitive CutOff       TCut            ....  2.500e-12 Eh

Convergence Tolerance:
 Convergence Check Mode ConvCheckMode   .... Total+1el-Energy
 Convergence forced     ConvForced      .... 1
 Energy Change          TolE            ....  1.000e-08 Eh
 1-El. energy change                    ....  1.000e-05 Eh
 Orbital Gradient       TolG            ....  1.000e-05
 Orbital Rotation angle TolX            ....  1.000e-05
 DIIS Error             TolErr          ....  5.000e-07

------------------------------
INITIAL GUESS: MODEL POTENTIAL
------------------------------
Loading Hartree-Fock densities                     ... done
Calculating cut-offs                               ... done
Initializing the effective Hamiltonian             ... done
Setting up the integral package (SHARK)            ... done
Starting the Coulomb interaction                   ... done (  20.7 sec)
Making the grid                                    ... done (   3.4 sec)
Mapping shells                                     ... done
Starting the XC term evaluation                    ... done (   3.3 sec)
  promolecular density results
     # of electrons  =    491.948447275
     EX              =   -394.535206372
     EC              =    -16.547736374
     EX+EC           =   -411.082942746
Transforming the Hamiltonian                       ... done (   1.5 sec)
Diagonalizing the Hamiltonian                      ... done (   2.0 sec)
Back transforming the eigenvectors                 ... done (   0.7 sec)
Now organizing SCF variables                       ... done
                      ------------------
                      INITIAL GUESS DONE (  32.2 sec)
                      ------------------
             **** ENERGY FILE WAS UPDATED (tddft.en.tmp) ****
Finished Guess after  40.1 sec
Maximum memory used throughout the entire GUESS-calculation: 365.9 MB


           ************************************************************
           *        Program running with 4 parallel MPI-processes     *
           *              working on a common directory               *
           ************************************************************

-------------------------------------------------------------------------------------------
                                      ORCA LEAN-SCF
                              memory conserving SCF solver
-------------------------------------------------------------------------------------------

--------------------
CPCM SOLVATION MODEL
--------------------
CPCM parameters:
  Epsilon                                         ...       8.9990
  Refrac                                          ...       1.4242
  Rsolv                                           ...       1.3000
  Surface type                                    ... GAUSSIAN VDW
  Discretization scheme                           ... Constant charge density
    Threshold for H atoms                         ...       5.0000 (charges/Ang^2)
    Threshold for non-H atoms                     ...       5.0000 (charges/Ang^2)
  Epsilon function type                           ...         CPCM
Solvent:                                          ... DICHLOROMETHANE
Radii:
  Scheme                                          ... Element-dependent radii
  Radius for Mg used is    3.9231 Bohr (=   2.0760 Ang.)
  Radius for C  used is    3.8550 Bohr (=   2.0400 Ang.)
  Radius for N  used is    3.5149 Bohr (=   1.8600 Ang.)
  Radius for O  used is    3.4469 Bohr (=   1.8240 Ang.)
  Radius for H  used is    2.4944 Bohr (=   1.3200 Ang.)
Calculating surface                               ...        done! (  0.1s)
Cavity surface points                             ...        10985
Cavity Volume                                     ...    7536.7882
Cavity Surface-area                               ...    3697.7046
Calculating surface distance matrix               ...        done! (  4.1s)
Performing Cholesky decomposition & store         ...        done! ( 13.9s)
Overall time for CPCM initialization              ...                18.1s

----------------------------------------D-I-I-S--------------------------------------------
Iteration    Energy (Eh)           Delta-E    RMSDP     MaxDP     DIISErr   Damp  Time(sec)
-------------------------------------------------------------------------------------------
               ***  Starting incremental Fock matrix formation  ***
    1    -3006.9430903171451064     0.00e+00  1.68e-03  2.51e-01  2.76e-01  0.700 551.1
Warning: op=0 Small HOMO/LUMO gap (   0.077) - skipping pre-diagonalization
         Will do a full diagonalization
    2    -3007.7515549427371297    -8.08e-01  1.62e-03  2.75e-01  1.13e-01  0.700 236.2
                               ***Turning on AO-DIIS***
    3    -3008.0949939013571566    -3.43e-01  6.07e-04  9.05e-02  4.09e-02  0.700 226.4
    4    -3008.2951200456864171    -2.00e-01  9.00e-04  7.79e-02  2.58e-02  0.000 229.4
    5    -3008.7273055229197780    -4.32e-01  3.56e-04  6.33e-02  6.02e-03  0.000 227.5
                              *** Initializing SOSCF ***
---------------------------------------S-O-S-C-F--------------------------------------
Iteration    Energy (Eh)           Delta-E    RMSDP     MaxDP     MaxGrad    Time(sec)
--------------------------------------------------------------------------------------
    6    -3008.7292133031787671    -1.91e-03  1.05e-04  1.35e-02  2.47e-03   213.0
               *** Restarting incremental Fock matrix formation ***
    7    -3008.7293495932026417    -1.36e-04  8.18e-05  1.11e-02  3.00e-04   608.2
    8    -3008.7293576745196333    -8.08e-06  2.30e-05  2.01e-03  3.11e-04   381.0
    9    -3008.7293735243365518    -1.58e-05  1.89e-05  1.91e-03  5.32e-05   328.7
   10    -3008.7293738828520873    -3.59e-07  6.30e-06  1.13e-03  2.61e-05   289.4
   11    -3008.7293743807858846    -4.98e-07  1.06e-05  1.34e-03  1.50e-05   214.6
   12    -3008.7293742997353547     8.11e-08  6.62e-06  1.21e-03  1.41e-05   229.0
   13    -3008.7293742236452090     7.61e-08  8.88e-06  9.51e-04  3.55e-06   195.5
   14    -3008.7293741945959482     2.90e-08  7.10e-06  1.16e-03  3.42e-06   199.5
   15    -3008.7293742275378463    -3.29e-08  6.58e-06  1.12e-03  6.58e-07   185.7
                  *** Gradient check signals convergence ***

               *****************************************************
               *                     SUCCESS                       *
               *           SCF CONVERGED AFTER  15 CYCLES          *
               *****************************************************

Recomputing exchange energy using gridx3       ... done (  897.260 sec)
Old exchange energy                            :   -100.991049716 Eh
New exchange energy                            :   -100.991022069 Eh
Exchange energy change after final integration :      0.000027647 Eh
Total energy after final integration           :  -3008.729346509 Eh
             **** ENERGY FILE WAS UPDATED (tddft.en.tmp) ****

----------------
TOTAL SCF ENERGY
----------------

Total Energy       :      -3008.72934650907291 Eh          -81871.68779 eV

Components:
Nuclear Repulsion  :       9704.01410495454184 Eh          264059.64833 eV
Electronic Energy  :     -12712.69888633781011 Eh         -345930.12344 eV
One Electron Energy:     -23430.59819310110106 Eh         -637578.99072 eV
Two Electron Energy:      10717.89930676329095 Eh          291648.86728 eV
CPCM Dielectric    :         -0.04459277260120 Eh              -1.21343 eV

Virial components:
Potential Energy   :      -6002.78232329633101 Eh         -163344.01127 eV
Kinetic Energy     :       2994.05297678725856 Eh           81472.32347 eV
Virial Ratio       :          2.00490184036007

DFT components:
N(Alpha)           :      245.999983248789 electrons
N(Beta)            :      245.999983248789 electrons
N(Total)           :      491.999966497577 electrons
E(X)               :     -301.930800255575 Eh       
E(C)               :      -16.514906007686 Eh       
E(XC)              :     -318.445706263261 Eh       

CPCM Solvation Model Properties:
Surface-charge          :         -0.06929096956144
Corrected charge        :          0.00000000000000
Outlying charge corr.   :          0.00013102101291 Eh               0.00357 eV
Free-energy (cav+disp)  :  This term is not implemented in the current solvation scheme

---------------
SCF CONVERGENCE
---------------

  Last Energy change         ...    3.2942e-08  Tolerance :   1.0000e-08
  Last MAX-Density change    ...    1.1225e-03  Tolerance :   1.0000e-07
  Last RMS-Density change    ...    6.5791e-06  Tolerance :   5.0000e-09
  Last DIIS Error            ...    2.4654e-03  Tolerance :   5.0000e-07
  Last Orbital Gradient      ...    6.5795e-07  Tolerance :   1.0000e-05
  Last Orbital Rotation      ...    8.5763e-06  Tolerance :   1.0000e-05


----------------
ORBITAL ENERGIES
----------------

  NO   OCC          E(Eh)            E(eV) 
   0   2.0000     -46.880846     -1275.6927 
   1   2.0000     -19.261020      -524.1190 
   2   2.0000     -19.252744      -523.8938 
   3   2.0000     -19.202510      -522.5269 
   4   2.0000     -19.202026      -522.5137 
   5   2.0000     -19.196786      -522.3711 
   6   2.0000     -19.191741      -522.2338 
   7   2.0000     -14.402379      -391.9086 
   8   2.0000     -14.397562      -391.7776 
   9   2.0000     -14.379179      -391.2774 
  10   2.0000     -14.376900      -391.2153 
  11   2.0000     -10.359591      -281.8988 
  12   2.0000     -10.352440      -281.7042 
  13   2.0000     -10.325451      -280.9698 
  14   2.0000     -10.316317      -280.7213 
  15   2.0000     -10.275145      -279.6009 
  16   2.0000     -10.270773      -279.4819 
  17   2.0000     -10.270749      -279.4813 
  18   2.0000     -10.268980      -279.4331 
  19   2.0000     -10.268107      -279.4094 
  20   2.0000     -10.267061      -279.3809 
  21   2.0000     -10.266698      -279.3711 
  22   2.0000     -10.264339      -279.3069 
  23   2.0000     -10.261730      -279.2359 
  24   2.0000     -10.256862      -279.1034 
  25   2.0000     -10.253314      -279.0068 
  26   2.0000     -10.249870      -278.9131 
  27   2.0000     -10.246899      -278.8323 
  28   2.0000     -10.241717      -278.6913 
  29   2.0000     -10.237196      -278.5683 
  30   2.0000     -10.236365      -278.5456 
  31   2.0000     -10.235568      -278.5240 
  32   2.0000     -10.233401      -278.4650 
  33   2.0000     -10.232382      -278.4373 
  34   2.0000     -10.231753      -278.4202 
  35   2.0000     -10.230306      -278.3808 
  36   2.0000     -10.228470      -278.3308 
  37   2.0000     -10.227298      -278.2989 
  38   2.0000     -10.225574      -278.2520 
  39   2.0000     -10.223179      -278.1868 
  40   2.0000     -10.221402      -278.1385 
  41   2.0000     -10.220533      -278.1149 
  42   2.0000     -10.219292      -278.0811 
  43   2.0000     -10.217678      -278.0372 
  44   2.0000     -10.217419      -278.0301 
  45   2.0000     -10.216915      -278.0164 
  46   2.0000     -10.215901      -277.9888 
  47   2.0000     -10.215522      -277.9785 
  48   2.0000     -10.215387      -277.9748 
  49   2.0000     -10.212886      -277.9068 
  50   2.0000     -10.212050      -277.8840 
  51   2.0000     -10.211744      -277.8757 
  52   2.0000     -10.211642      -277.8729 
  53   2.0000     -10.211074      -277.8575 
  54   2.0000     -10.207275      -277.7541 
  55   2.0000     -10.205364      -277.7021 
  56   2.0000     -10.205030      -277.6930 
  57   2.0000     -10.204974      -277.6915 
  58   2.0000     -10.204758      -277.6856 
  59   2.0000     -10.204718      -277.6845 
  60   2.0000     -10.204538      -277.6796 
  61   2.0000     -10.204458      -277.6774 
  62   2.0000     -10.199372      -277.5390 
  63   2.0000     -10.199300      -277.5371 
  64   2.0000     -10.199046      -277.5302 
  65   2.0000     -10.198322      -277.5105 
  66   2.0000      -3.103504       -84.4506 
  67   2.0000      -1.830131       -49.8004 
  68   2.0000      -1.825171       -49.6654 
  69   2.0000      -1.824331       -49.6426 
  70   2.0000      -1.145941       -31.1826 
  71   2.0000      -1.136693       -30.9310 
  72   2.0000      -1.081995       -29.4426 
  73   2.0000      -1.071944       -29.1691 
  74   2.0000      -1.057351       -28.7720 
  75   2.0000      -1.049990       -28.5717 
  76   2.0000      -1.000690       -27.2302 
  77   2.0000      -0.990988       -26.9662 
  78   2.0000      -0.990785       -26.9606 
  79   2.0000      -0.981088       -26.6967 
  80   2.0000      -0.878581       -23.9074 
  81   2.0000      -0.853892       -23.2356 
  82   2.0000      -0.845185       -22.9987 
  83   2.0000      -0.843135       -22.9429 
  84   2.0000      -0.839736       -22.8504 
  85   2.0000      -0.834707       -22.7135 
  86   2.0000      -0.831203       -22.6182 
  87   2.0000      -0.828239       -22.5375 
  88   2.0000      -0.824777       -22.4433 
  89   2.0000      -0.822603       -22.3842 
  90   2.0000      -0.818986       -22.2857 
  91   2.0000      -0.804776       -21.8991 
  92   2.0000      -0.792695       -21.5703 
  93   2.0000      -0.787394       -21.4261 
  94   2.0000      -0.781060       -21.2537 
  95   2.0000      -0.771906       -21.0046 
  96   2.0000      -0.766120       -20.8472 
  97   2.0000      -0.764111       -20.7925 
  98   2.0000      -0.756344       -20.5812 
  99   2.0000      -0.752625       -20.4800 
 100   2.0000      -0.741063       -20.1653 
 101   2.0000      -0.733983       -19.9727 
 102   2.0000      -0.725698       -19.7472 
 103   2.0000      -0.720320       -19.6009 
 104   2.0000      -0.710387       -19.3306 
 105   2.0000      -0.702910       -19.1272 
 106   2.0000      -0.697037       -18.9673 
 107   2.0000      -0.696815       -18.9613 
 108   2.0000      -0.692609       -18.8469 
 109   2.0000      -0.687304       -18.7025 
 110   2.0000      -0.681095       -18.5335 
 111   2.0000      -0.676090       -18.3974 
 112   2.0000      -0.665220       -18.1016 
 113   2.0000      -0.652848       -17.7649 
 114   2.0000      -0.639522       -17.4023 
 115   2.0000      -0.637635       -17.3509 
 116   2.0000      -0.634566       -17.2674 
 117   2.0000      -0.623860       -16.9761 
 118   2.0000      -0.609580       -16.5875 
 119   2.0000      -0.601005       -16.3542 
 120   2.0000      -0.597478       -16.2582 
 121   2.0000      -0.593769       -16.1573 
 122   2.0000      -0.587576       -15.9888 
 123   2.0000      -0.586358       -15.9556 
 124   2.0000      -0.579529       -15.7698 
 125   2.0000      -0.573335       -15.6012 
 126   2.0000      -0.573118       -15.5953 
 127   2.0000      -0.568800       -15.4778 
 128   2.0000      -0.560582       -15.2542 
 129   2.0000      -0.551618       -15.0103 
 130   2.0000      -0.545902       -14.8548 
 131   2.0000      -0.541316       -14.7300 
 132   2.0000      -0.537016       -14.6130 
 133   2.0000      -0.534118       -14.5341 
 134   2.0000      -0.530575       -14.4377 
 135   2.0000      -0.525444       -14.2981 
 136   2.0000      -0.523292       -14.2395 
 137   2.0000      -0.511854       -13.9282 
 138   2.0000      -0.505663       -13.7598 
 139   2.0000      -0.504612       -13.7312 
 140   2.0000      -0.502378       -13.6704 
 141   2.0000      -0.500990       -13.6326 
 142   2.0000      -0.498168       -13.5558 
 143   2.0000      -0.491620       -13.3777 
 144   2.0000      -0.490348       -13.3430 
 145   2.0000      -0.488804       -13.3010 
 146   2.0000      -0.486849       -13.2478 
 147   2.0000      -0.482974       -13.1424 
 148   2.0000      -0.478100       -13.0098 
 149   2.0000      -0.473513       -12.8850 
 150   2.0000      -0.471087       -12.8189 
 151   2.0000      -0.468384       -12.7454 
 152   2.0000      -0.467529       -12.7221 
 153   2.0000      -0.465229       -12.6595 
 154   2.0000      -0.461696       -12.5634 
 155   2.0000      -0.460831       -12.5398 
 156   2.0000      -0.458263       -12.4700 
 157   2.0000      -0.452958       -12.3256 
 158   2.0000      -0.452430       -12.3112 
 159   2.0000      -0.451065       -12.2741 
 160   2.0000      -0.449978       -12.2445 
 161   2.0000      -0.445892       -12.1333 
 162   2.0000      -0.445753       -12.1295 
 163   2.0000      -0.442691       -12.0462 
 164   2.0000      -0.441648       -12.0178 
 165   2.0000      -0.439647       -11.9634 
 166   2.0000      -0.436463       -11.8768 
 167   2.0000      -0.433803       -11.8044 
 168   2.0000      -0.433088       -11.7849 
 169   2.0000      -0.429201       -11.6792 
 170   2.0000      -0.427396       -11.6300 
 171   2.0000      -0.426644       -11.6096 
 172   2.0000      -0.425879       -11.5888 
 173   2.0000      -0.423922       -11.5355 
 174   2.0000      -0.422069       -11.4851 
 175   2.0000      -0.417740       -11.3673 
 176   2.0000      -0.417661       -11.3651 
 177   2.0000      -0.412895       -11.2354 
 178   2.0000      -0.410889       -11.1809 
 179   2.0000      -0.408790       -11.1237 
 180   2.0000      -0.408461       -11.1148 
 181   2.0000      -0.406659       -11.0658 
 182   2.0000      -0.404704       -11.0126 
 183   2.0000      -0.404221       -10.9994 
 184   2.0000      -0.401115       -10.9149 
 185   2.0000      -0.398282       -10.8378 
 186   2.0000      -0.396868       -10.7993 
 187   2.0000      -0.395921       -10.7736 
 188   2.0000      -0.393911       -10.7189 
 189   2.0000      -0.391430       -10.6514 
 190   2.0000      -0.388384       -10.5685 
 191   2.0000      -0.388283       -10.5657 
 192   2.0000      -0.387743       -10.5510 
 193   2.0000      -0.386812       -10.5257 
 194   2.0000      -0.384400       -10.4600 
 195   2.0000      -0.383999       -10.4491 
 196   2.0000      -0.382631       -10.4119 
 197   2.0000      -0.379820       -10.3354 
 198   2.0000      -0.379017       -10.3136 
 199   2.0000      -0.376990       -10.2584 
 200   2.0000      -0.374480       -10.1901 
 201   2.0000      -0.373751       -10.1703 
 202   2.0000      -0.370929       -10.0935 
 203   2.0000      -0.368917       -10.0387 
 204   2.0000      -0.368013       -10.0141 
 205   2.0000      -0.365728        -9.9520 
 206   2.0000      -0.363795        -9.8994 
 207   2.0000      -0.361755        -9.8439 
 208   2.0000      -0.359673        -9.7872 
 209   2.0000      -0.356743        -9.7075 
 210   2.0000      -0.353570        -9.6211 
 211   2.0000      -0.351975        -9.5777 
 212   2.0000      -0.350997        -9.5511 
 213   2.0000      -0.350492        -9.5374 
 214   2.0000      -0.347216        -9.4482 
 215   2.0000      -0.343810        -9.3556 
 216   2.0000      -0.343245        -9.3402 
 217   2.0000      -0.338578        -9.2132 
 218   2.0000      -0.337677        -9.1887 
 219   2.0000      -0.331458        -9.0194 
 220   2.0000      -0.331169        -9.0116 
 221   2.0000      -0.329283        -8.9603 
 222   2.0000      -0.328655        -8.9432 
 223   2.0000      -0.327611        -8.9148 
 224   2.0000      -0.323374        -8.7995 
 225   2.0000      -0.321759        -8.7555 
 226   2.0000      -0.321061        -8.7365 
 227   2.0000      -0.320029        -8.7084 
 228   2.0000      -0.319304        -8.6887 
 229   2.0000      -0.317845        -8.6490 
 230   2.0000      -0.315583        -8.5874 
 231   2.0000      -0.313852        -8.5403 
 232   2.0000      -0.310823        -8.4579 
 233   2.0000      -0.306458        -8.3391 
 234   2.0000      -0.299779        -8.1574 
 235   2.0000      -0.295805        -8.0493 
 236   2.0000      -0.292925        -7.9709 
 237   2.0000      -0.290732        -7.9112 
 238   2.0000      -0.274227        -7.4621 
 239   2.0000      -0.272302        -7.4097 
 240   2.0000      -0.268734        -7.3126 
 241   2.0000      -0.265433        -7.2228 
 242   2.0000      -0.259478        -7.0608 
 243   2.0000      -0.257418        -7.0047 
 244   2.0000      -0.211961        -5.7678 
 245   2.0000      -0.187120        -5.0918 
 246   0.0000      -0.111715        -3.0399 
 247   0.0000      -0.050697        -1.3795 
 248   0.0000      -0.041787        -1.1371 
 249   0.0000      -0.025536        -0.6949 
 250   0.0000       0.001173         0.0319 
 251   0.0000       0.003005         0.0818 
 252   0.0000       0.008827         0.2402 
 253   0.0000       0.013839         0.3766 
 254   0.0000       0.017605         0.4790 
 255   0.0000       0.029729         0.8090 
 256   0.0000       0.035678         0.9708 
*Only the first 10 virtual orbitals were printed.

                    ********************************
                    * MULLIKEN POPULATION ANALYSIS *
                    ********************************

-----------------------
MULLIKEN ATOMIC CHARGES
-----------------------
   0 Mg:    0.731395
   1 C :   -0.245409
   2 C :   -0.586341
   3 C :   -0.548149
   4 C :   -0.532454
   5 N :   -0.342677
   6 C :    0.086291
   7 C :    0.190786
   8 C :    0.019204
   9 C :    0.201374
  10 C :   -0.459176
  11 C :   -0.340679
  12 C :   -0.204852
  13 C :    0.298259
  14 O :   -0.399998
  15 O :   -0.240078
  16 N :   -0.325915
  17 C :    0.357798
  18 C :   -0.053833
  19 C :   -0.079054
  20 C :    0.272924
  21 C :   -0.394045
  22 C :    0.198983
  23 O :   -0.398869
  24 C :   -0.362641
  25 N :   -0.298860
  26 C :    0.262526
  27 C :   -0.002931
  28 C :    0.112005
  29 C :    0.162776
  30 C :   -0.457459
  31 C :   -0.233104
  32 C :   -0.425615
  33 N :   -0.348802
  34 C :    0.320279
  35 C :   -0.143876
  36 C :   -0.003217
  37 C :    0.259593
  38 C :   -0.444263
  39 C :    0.071577
  40 O :   -0.351807
  41 C :    0.126996
  42 C :    0.254394
  43 O :   -0.384260
  44 O :   -0.232439
  45 C :   -0.261208
  46 C :   -0.052233
  47 C :   -0.259970
  48 C :    0.049746
  49 C :   -0.405960
  50 C :   -0.171124
  51 C :   -0.297094
  52 C :   -0.209977
  53 C :    0.054103
  54 C :   -0.456192
  55 C :   -0.209646
  56 C :   -0.258670
  57 C :   -0.208974
  58 C :    0.057131
  59 C :   -0.456327
  60 C :   -0.209707
  61 C :   -0.257797
  62 C :   -0.219735
  63 C :    0.031501
  64 C :   -0.432788
  65 C :   -0.397033
  66 H :    0.137278
  67 H :    0.163050
  68 H :    0.158833
  69 H :    0.113375
  70 H :    0.118871
  71 H :    0.139935
  72 H :    0.142484
  73 H :    0.140285
  74 H :    0.132690
  75 H :    0.140404
  76 H :    0.148699
  77 H :    0.144909
  78 H :    0.154816
  79 H :    0.160329
  80 H :    0.156225
  81 H :    0.149690
  82 H :    0.147989
  83 H :    0.150539
  84 H :    0.117191
  85 H :    0.102488
  86 H :    0.139134
  87 H :    0.138303
  88 H :    0.140819
  89 H :    0.116276
  90 H :    0.118609
  91 H :    0.140878
  92 H :    0.134711
  93 H :    0.133010
  94 H :    0.155601
  95 H :    0.155666
  96 H :    0.153275
  97 H :    0.130305
  98 H :    0.160631
  99 H :    0.150888
 100 H :    0.153064
 101 H :    0.137885
 102 H :    0.161215
 103 H :    0.138345
 104 H :    0.141022
 105 H :    0.139097
 106 H :    0.151754
 107 H :    0.120794
 108 H :    0.117069
 109 H :    0.124432
 110 H :    0.110092
 111 H :    0.106947
 112 H :    0.101437
 113 H :    0.067186
 114 H :    0.138344
 115 H :    0.118502
 116 H :    0.136944
 117 H :    0.104364
 118 H :    0.099333
 119 H :    0.113279
 120 H :    0.098172
 121 H :    0.103788
 122 H :    0.098698
 123 H :    0.065335
 124 H :    0.137789
 125 H :    0.117736
 126 H :    0.137310
 127 H :    0.103783
 128 H :    0.098808
 129 H :    0.116162
 130 H :    0.097114
 131 H :    0.104506
 132 H :    0.099722
 133 H :    0.072251
 134 H :    0.131090
 135 H :    0.118573
 136 H :    0.136953
 137 H :    0.131477
 138 H :    0.128753
 139 H :    0.118285
Sum of atomic charges:   -0.0000000

--------------------------------
MULLIKEN REDUCED ORBITAL CHARGES
--------------------------------
  0 Mgs       :     4.565948  s :     4.565948
      pz      :     2.082879  p :     6.438969
      px      :     2.192581
      py      :     2.163508
      dz2     :     0.029101  d :     0.263689
      dxz     :     0.040871
      dyz     :     0.021523
      dx2y2   :     0.065922
      dxy     :     0.106271

  1 C s       :     3.515876  s :     3.515876
      pz      :     0.977946  p :     2.596542
      px      :     0.840119
      py      :     0.778477
      dz2     :     0.012394  d :     0.122917
      dxz     :     0.018408
      dyz     :     0.021820
      dx2y2   :     0.042798
      dxy     :     0.027498
      f0      :     0.001071  f :     0.010074
      f+1     :     0.000981
      f-1     :     0.001373
      f+2     :     0.001341
      f-2     :     0.000893
      f+3     :     0.001940
      f-3     :     0.002476

  2 C s       :     3.405309  s :     3.405309
      pz      :     1.040801  p :     3.100834
      px      :     1.067524
      py      :     0.992510
      dz2     :     0.004598  d :     0.072954
      dxz     :     0.024161
      dyz     :     0.007391
      dx2y2   :     0.019116
      dxy     :     0.017688
      f0      :     0.001170  f :     0.007243
      f+1     :     0.000721
      f-1     :     0.000628
      f+2     :     0.001035
      f-2     :     0.000728
      f+3     :     0.001267
      f-3     :     0.001693

  3 C s       :     3.398114  s :     3.398114
      pz      :     1.051537  p :     3.069971
      px      :     1.027607
      py      :     0.990827
      dz2     :     0.009432  d :     0.072872
      dxz     :     0.006753
      dyz     :     0.016979
      dx2y2   :     0.021880
      dxy     :     0.017828
      f0      :     0.000829  f :     0.007192
      f+1     :     0.000673
      f-1     :     0.001386
      f+2     :     0.000697
      f-2     :     0.000812
      f+3     :     0.001575
      f-3     :     0.001220

  4 C s       :     3.403090  s :     3.403090
      pz      :     1.046575  p :     3.045744
      px      :     0.998826
      py      :     1.000344
      dz2     :     0.003789  d :     0.076356
      dxz     :     0.023998
      dyz     :     0.008021
      dx2y2   :     0.021950
      dxy     :     0.018597
      f0      :     0.001221  f :     0.007264
      f+1     :     0.000703
      f-1     :     0.000658
      f+2     :     0.000977
      f-2     :     0.000753
      f+3     :     0.001229
      f-3     :     0.001722

  5 N s       :     3.667130  s :     3.667130
      pz      :     1.260428  p :     3.608227
      px      :     1.070605
      py      :     1.277193
      dz2     :     0.006914  d :     0.063697
      dxz     :     0.014683
      dyz     :     0.007245
      dx2y2   :     0.017001
      dxy     :     0.017854
      f0      :     0.000450  f :     0.003623
      f+1     :     0.000372
      f-1     :     0.000461
      f+2     :     0.000526
      f-2     :     0.000329
      f+3     :     0.000628
      f-3     :     0.000858

  6 C s       :     3.257863  s :     3.257863
      pz      :     0.888144  p :     2.478543
      px      :     0.745400
      py      :     0.845000
      dz2     :     0.010646  d :     0.163355
      dxz     :     0.038552
      dyz     :     0.022207
      dx2y2   :     0.045479
      dxy     :     0.046471
      f0      :     0.001543  f :     0.013948
      f+1     :     0.001249
      f-1     :     0.001255
      f+2     :     0.002223
      f-2     :     0.000997
      f+3     :     0.002887
      f-3     :     0.003794

  7 C s       :     2.941746  s :     2.941746
      pz      :     0.931185  p :     2.730371
      px      :     0.906384
      py      :     0.892801
      dz2     :     0.021900  d :     0.129236
      dxz     :     0.030317
      dyz     :     0.021451
      dx2y2   :     0.033874
      dxy     :     0.021695
      f0      :     0.000806  f :     0.007860
      f+1     :     0.001132
      f-1     :     0.001045
      f+2     :     0.001625
      f-2     :     0.000895
      f+3     :     0.001380
      f-3     :     0.000977

  8 C s       :     3.035253  s :     3.035253
      pz      :     0.966228  p :     2.803565
      px      :     0.912749
      py      :     0.924588
      dz2     :     0.024756  d :     0.133938
      dxz     :     0.036539
      dyz     :     0.028449
      dx2y2   :     0.021605
      dxy     :     0.022589
      f0      :     0.001337  f :     0.008040
      f+1     :     0.001742
      f-1     :     0.001297
      f+2     :     0.000616
      f-2     :     0.000772
      f+3     :     0.001220
      f-3     :     0.001056

  9 C s       :     3.136342  s :     3.136342
      pz      :     0.846172  p :     2.486963
      px      :     0.847028
      py      :     0.793763
      dz2     :     0.015385  d :     0.161269
      dxz     :     0.038992
      dyz     :     0.019692
      dx2y2   :     0.041654
      dxy     :     0.045546
      f0      :     0.001321  f :     0.014052
      f+1     :     0.001200
      f-1     :     0.001744
      f+2     :     0.001858
      f-2     :     0.001601
      f+3     :     0.002030
      f-3     :     0.004299

 10 C s       :     3.289990  s :     3.289990
      pz      :     0.928940  p :     3.106882
      px      :     1.089588
      py      :     1.088354
      dz2     :     0.008778  d :     0.058868
      dxz     :     0.018210
      dyz     :     0.019403
      dx2y2   :     0.005733
      dxy     :     0.006743
      f0      :     0.001104  f :     0.003436
      f+1     :     0.000814
      f-1     :     0.000889
      f+2     :    -0.000033
      f-2     :    -0.000034
      f+3     :     0.000390
      f-3     :     0.000305

 11 C s       :     3.224268  s :     3.224268
      pz      :     0.931870  p :     3.013876
      px      :     1.035110
      py      :     1.046896
      dz2     :     0.025406  d :     0.096980
      dxz     :     0.021624
      dyz     :     0.018783
      dx2y2   :     0.020437
      dxy     :     0.010729
      f0      :     0.001021  f :     0.005555
      f+1     :     0.000891
      f-1     :     0.000644
      f+2     :     0.001256
      f-2     :     0.001066
      f+3     :     0.000166
      f-3     :     0.000512

 12 C s       :     3.101449  s :     3.101449
      pz      :     0.944504  p :     3.011976
      px      :     1.017680
      py      :     1.049793
      dz2     :     0.023280  d :     0.086091
      dxz     :     0.012751
      dyz     :     0.022696
      dx2y2   :     0.016369
      dxy     :     0.010995
      f0      :     0.000828  f :     0.005337
      f+1     :     0.001042
      f-1     :     0.000626
      f+2     :     0.001082
      f-2     :     0.001035
      f+3     :     0.000165
      f-3     :     0.000558

 13 C s       :     3.102752  s :     3.102752
      pz      :     0.817024  p :     2.307142
      px      :     0.733079
      py      :     0.757039
      dz2     :     0.042967  d :     0.267157
      dxz     :     0.087931
      dyz     :     0.017849
      dx2y2   :     0.045112
      dxy     :     0.073298
      f0      :     0.002934  f :     0.024690
      f+1     :     0.005085
      f-1     :     0.001264
      f+2     :     0.004819
      f-2     :     0.002803
      f+3     :     0.003524
      f-3     :     0.004261

 14 O s       :     3.806845  s :     3.806845
      pz      :     1.667993  p :     4.560437
      px      :     1.368942
      py      :     1.523503
      dz2     :     0.003403  d :     0.030808
      dxz     :     0.008970
      dyz     :     0.000595
      dx2y2   :     0.007929
      dxy     :     0.009910
      f0      :     0.000226  f :     0.001908
      f+1     :     0.000326
      f-1     :     0.000041
      f+2     :     0.000339
      f-2     :     0.000074
      f+3     :     0.000367
      f-3     :     0.000534

 15 O s       :     3.752874  s :     3.752874
      pz      :     1.339613  p :     4.446013
      px      :     1.535322
      py      :     1.571078
      dz2     :     0.007104  d :     0.039185
      dxz     :     0.012640
      dyz     :     0.005962
      dx2y2   :     0.006266
      dxy     :     0.007214
      f0      :     0.000257  f :     0.002005
      f+1     :     0.000323
      f-1     :     0.000395
      f+2     :     0.000349
      f-2     :     0.000369
      f+3     :     0.000163
      f-3     :     0.000150

 16 N s       :     3.629550  s :     3.629550
      pz      :     1.336336  p :     3.631978
      px      :     1.190525
      py      :     1.105117
      dz2     :     0.007091  d :     0.060735
      dxz     :     0.008699
      dyz     :     0.011153
      dx2y2   :     0.017193
      dxy     :     0.016599
      f0      :     0.000489  f :     0.003652
      f+1     :     0.000300
      f-1     :     0.000602
      f+2     :     0.000452
      f-2     :     0.000430
      f+3     :     0.000819
      f-3     :     0.000561

 17 C s       :     3.075343  s :     3.075343
      pz      :     0.896809  p :     2.378584
      px      :     0.792661
      py      :     0.689115
      dz2     :     0.016467  d :     0.173817
      dxz     :     0.031418
      dyz     :     0.028881
      dx2y2   :     0.044889
      dxy     :     0.052163
      f0      :     0.001414  f :     0.014457
      f+1     :     0.000770
      f-1     :     0.002163
      f+2     :     0.002154
      f-2     :     0.001456
      f+3     :     0.003561
      f-3     :     0.002938

 18 C s       :     3.277108  s :     3.277108
      pz      :     0.902218  p :     2.609088
      px      :     0.876660
      py      :     0.830210
      dz2     :     0.013896  d :     0.157655
      dxz     :     0.026866
      dyz     :     0.024338
      dx2y2   :     0.046319
      dxy     :     0.046237
      f0      :     0.001070  f :     0.009982
      f+1     :     0.000732
      f-1     :     0.001412
      f+2     :     0.001388
      f-2     :     0.001013
      f+3     :     0.001374
      f-3     :     0.002994

 19 C s       :     3.288105  s :     3.288105
      pz      :     1.028994  p :     2.649354
      px      :     0.734696
      py      :     0.885664
      dz2     :     0.012905  d :     0.131564
      dxz     :     0.017486
      dyz     :     0.020525
      dx2y2   :     0.046295
      dxy     :     0.034353
      f0      :     0.001175  f :     0.010031
      f+1     :     0.001107
      f-1     :     0.001129
      f+2     :     0.000938
      f-2     :     0.001214
      f+3     :     0.001896
      f-3     :     0.002573

 20 C s       :     3.126527  s :     3.126527
      pz      :     0.890102  p :     2.407672
      px      :     0.723802
      py      :     0.793768
      dz2     :     0.013879  d :     0.178351
      dxz     :     0.037764
      dyz     :     0.027083
      dx2y2   :     0.051188
      dxy     :     0.048437
      f0      :     0.001448  f :     0.014526
      f+1     :     0.001235
      f-1     :     0.001632
      f+2     :     0.001262
      f-2     :     0.002206
      f+3     :     0.004557
      f-3     :     0.002186

 21 C s       :     3.281260  s :     3.281260
      pz      :     1.063069  p :     3.054711
      px      :     1.063775
      py      :     0.927867
      dz2     :     0.010267  d :     0.054849
      dxz     :     0.009841
      dyz     :     0.009963
      dx2y2   :     0.010061
      dxy     :     0.014717
      f0      :     0.000363  f :     0.003226
      f+1     :     0.000562
      f-1     :     0.000349
      f+2     :     0.000235
      f-2     :     0.000437
      f+3     :     0.000498
      f-3     :     0.000782

 22 C s       :     3.166466  s :     3.166466
      pz      :     0.744236  p :     2.405813
      px      :     0.889020
      py      :     0.772557
      dz2     :     0.034190  d :     0.211196
      dxz     :     0.044411
      dyz     :     0.025976
      dx2y2   :     0.047723
      dxy     :     0.058896
      f0      :     0.001265  f :     0.017542
      f+1     :     0.001186
      f-1     :     0.003178
      f+2     :     0.003215
      f-2     :     0.002373
      f+3     :     0.002676
      f-3     :     0.003649

 23 O s       :     3.821647  s :     3.821647
      pz      :     1.413185  p :     4.544770
      px      :     1.759919
      py      :     1.371666
      dz2     :     0.006397  d :     0.030657
      dxz     :     0.003954
      dyz     :     0.007132
      dx2y2   :     0.006867
      dxy     :     0.006308
      f0      :     0.000106  f :     0.001794
      f+1     :     0.000139
      f-1     :     0.000374
      f+2     :     0.000279
      f-2     :     0.000308
      f+3     :     0.000265
      f-3     :     0.000322

 24 C s       :     3.204126  s :     3.204126
      pz      :     1.034800  p :     3.109304
      px      :     1.029314
      py      :     1.045189
      dz2     :     0.010818  d :     0.046043
      dxz     :     0.006959
      dyz     :     0.007969
      dx2y2   :     0.011255
      dxy     :     0.009042
      f0      :     0.000414  f :     0.003168
      f+1     :     0.000524
      f-1     :     0.000321
      f+2     :     0.000492
      f-2     :     0.000409
      f+3     :     0.000231
      f-3     :     0.000778

 25 N s       :     3.642726  s :     3.642726
      pz      :     1.260047  p :     3.589478
      px      :     1.083771
      py      :     1.245660
      dz2     :     0.006317  d :     0.063052
      dxz     :     0.014173
      dyz     :     0.007168
      dx2y2   :     0.017461
      dxy     :     0.017933
      f0      :     0.000469  f :     0.003605
      f+1     :     0.000349
      f-1     :     0.000445
      f+2     :     0.000517
      f-2     :     0.000312
      f+3     :     0.000618
      f-3     :     0.000894

 26 C s       :     3.122426  s :     3.122426
      pz      :     0.879239  p :     2.438105
      px      :     0.689531
      py      :     0.869335
      dz2     :     0.010425  d :     0.162907
      dxz     :     0.040119
      dyz     :     0.020370
      dx2y2   :     0.045004
      dxy     :     0.046988
      f0      :     0.001567  f :     0.014037
      f+1     :     0.001226
      f-1     :     0.001091
      f+2     :     0.002215
      f-2     :     0.000983
      f+3     :     0.002966
      f-3     :     0.003988

 27 C s       :     3.051665  s :     3.051665
      pz      :     0.952094  p :     2.809458
      px      :     0.947250
      py      :     0.910114
      dz2     :     0.023985  d :     0.133769
      dxz     :     0.034020
      dyz     :     0.021898
      dx2y2   :     0.031793
      dxy     :     0.022073
      f0      :     0.000904  f :     0.008039
      f+1     :     0.001178
      f-1     :     0.001002
      f+2     :     0.001572
      f-2     :     0.000940
      f+3     :     0.001448
      f-3     :     0.000995

 28 C s       :     2.974662  s :     2.974662
      pz      :     0.962798  p :     2.774457
      px      :     0.908649
      py      :     0.903010
      dz2     :     0.022619  d :     0.130977
      dxz     :     0.036422
      dyz     :     0.027150
      dx2y2   :     0.021548
      dxy     :     0.023237
      f0      :     0.001382  f :     0.007898
      f+1     :     0.001601
      f-1     :     0.001173
      f+2     :     0.000634
      f-2     :     0.000803
      f+3     :     0.001238
      f-3     :     0.001066

 29 C s       :     3.173294  s :     3.173294
      pz      :     0.875501  p :     2.488437
      px      :     0.812291
      py      :     0.800644
      dz2     :     0.014693  d :     0.161481
      dxz     :     0.038923
      dyz     :     0.020665
      dx2y2   :     0.042007
      dxy     :     0.045195
      f0      :     0.001401  f :     0.014013
      f+1     :     0.001129
      f-1     :     0.001709
      f+2     :     0.001795
      f-2     :     0.001605
      f+3     :     0.002057
      f-3     :     0.004317

 30 C s       :     3.290003  s :     3.290003
      pz      :     0.986341  p :     3.104743
      px      :     1.078441
      py      :     1.039961
      dz2     :     0.013460  d :     0.059266
      dxz     :     0.019224
      dyz     :     0.007438
      dx2y2   :     0.012667
      dxy     :     0.006478
      f0      :     0.000543  f :     0.003447
      f+1     :     0.000478
      f-1     :     0.000390
      f+2     :     0.001008
      f-2     :     0.000567
      f+3     :     0.000095
      f-3     :     0.000366

 31 C s       :     3.184298  s :     3.184298
      pz      :     0.907885  p :     2.940772
      px      :     1.039934
      py      :     0.992953
      dz2     :     0.027390  d :     0.102505
      dxz     :     0.016557
      dyz     :     0.026034
      dx2y2   :     0.009085
      dxy     :     0.023439
      f0      :     0.001075  f :     0.005528
      f+1     :     0.000822
      f-1     :     0.001659
      f+2     :     0.000267
      f-2     :     0.000409
      f+3     :     0.000579
      f-3     :     0.000718

 32 C s       :     3.251117  s :     3.251117
      pz      :     1.063175  p :     3.112164
      px      :     1.069956
      py      :     0.979033
      dz2     :     0.021393  d :     0.058965
      dxz     :     0.002294
      dyz     :     0.006976
      dx2y2   :     0.007056
      dxy     :     0.021246
      f0      :     0.000691  f :     0.003369
      f+1     :     0.000028
      f-1     :     0.000857
      f+2     :     0.000193
      f-2     :     0.000352
      f+3     :     0.000539
      f-3     :     0.000708

 33 N s       :     3.658479  s :     3.658479
      pz      :     1.337556  p :     3.625901
      px      :     1.196924
      py      :     1.091422
      dz2     :     0.006866  d :     0.060763
      dxz     :     0.008623
      dyz     :     0.011365
      dx2y2   :     0.017234
      dxy     :     0.016675
      f0      :     0.000509  f :     0.003658
      f+1     :     0.000302
      f-1     :     0.000567
      f+2     :     0.000402
      f-2     :     0.000472
      f+3     :     0.000854
      f-3     :     0.000552

 34 C s       :     3.095119  s :     3.095119
      pz      :     0.905077  p :     2.400485
      px      :     0.779292
      py      :     0.716116
      dz2     :     0.014812  d :     0.169827
      dxz     :     0.031274
      dyz     :     0.028371
      dx2y2   :     0.044039
      dxy     :     0.051332
      f0      :     0.001475  f :     0.014289
      f+1     :     0.000831
      f-1     :     0.002007
      f+2     :     0.002071
      f-2     :     0.001438
      f+3     :     0.003130
      f-3     :     0.003337

 35 C s       :     3.410929  s :     3.410929
      pz      :     0.928275  p :     2.575400
      px      :     0.838259
      py      :     0.808866
      dz2     :     0.012521  d :     0.147682
      dxz     :     0.022569
      dyz     :     0.026648
      dx2y2   :     0.049352
      dxy     :     0.036592
      f0      :     0.001115  f :     0.009865
      f+1     :     0.000674
      f-1     :     0.001389
      f+2     :     0.001482
      f-2     :     0.000908
      f+3     :     0.001349
      f-3     :     0.002948

 36 C s       :     3.235568  s :     3.235568
      pz      :     1.025494  p :     2.618859
      px      :     0.768013
      py      :     0.825352
      dz2     :     0.013585  d :     0.138013
      dxz     :     0.017024
      dyz     :     0.023348
      dx2y2   :     0.036074
      dxy     :     0.047982
      f0      :     0.001253  f :     0.010776
      f+1     :     0.000978
      f-1     :     0.001396
      f+2     :     0.000773
      f-2     :     0.001545
      f+3     :     0.002707
      f-3     :     0.002124

 37 C s       :     3.148433  s :     3.148433
      pz      :     0.891061  p :     2.393080
      px      :     0.691553
      py      :     0.810466
      dz2     :     0.012495  d :     0.183077
      dxz     :     0.044064
      dyz     :     0.026727
      dx2y2   :     0.053264
      dxy     :     0.046527
      f0      :     0.001683  f :     0.015817
      f+1     :     0.001302
      f-1     :     0.001600
      f+2     :     0.001132
      f-2     :     0.002493
      f+3     :     0.005138
      f-3     :     0.002469

 38 C s       :     3.333291  s :     3.333291
      pz      :     1.052749  p :     3.052683
      px      :     1.039315
      py      :     0.960619
      dz2     :     0.009065  d :     0.054983
      dxz     :     0.004939
      dyz     :     0.016709
      dx2y2   :     0.017534
      dxy     :     0.006736
      f0      :     0.000293  f :     0.003306
      f+1     :     0.000347
      f-1     :     0.000662
      f+2     :     0.000367
      f-2     :     0.000336
      f+3     :     0.000523
      f-3     :     0.000778

 39 C s       :     3.165193  s :     3.165193
      pz      :     0.763940  p :     2.545007
      px      :     0.834583
      py      :     0.946485
      dz2     :     0.009507  d :     0.200326
      dxz     :     0.055253
      dyz     :     0.016398
      dx2y2   :     0.053386
      dxy     :     0.065782
      f0      :     0.001906  f :     0.017898
      f+1     :     0.001597
      f-1     :     0.000882
      f+2     :     0.002513
      f-2     :     0.001420
      f+3     :     0.005020
      f-3     :     0.004559

 40 O s       :     3.798024  s :     3.798024
      pz      :     1.418391  p :     4.521018
      px      :     1.394930
      py      :     1.707697
      dz2     :     0.002790  d :     0.030974
      dxz     :     0.010118
      dyz     :     0.000857
      dx2y2   :     0.008260
      dxy     :     0.008947
      f0      :     0.000173  f :     0.001792
      f+1     :     0.000177
      f-1     :     0.000024
      f+2     :     0.000341
      f-2     :     0.000119
      f+3     :     0.000473
      f-3     :     0.000484

 41 C s       :     2.881709  s :     2.881709
      pz      :     0.927077  p :     2.869801
      px      :     0.917873
      py      :     1.024850
      dz2     :     0.015987  d :     0.114615
      dxz     :     0.031351
      dyz     :     0.020085
      dx2y2   :     0.021028
      dxy     :     0.026165
      f0      :     0.001170  f :     0.006878
      f+1     :     0.000989
      f-1     :     0.000852
      f+2     :     0.001116
      f-2     :     0.000498
      f+3     :     0.000937
      f-3     :     0.001315

 42 C s       :     3.124634  s :     3.124634
      pz      :     0.824148  p :     2.326481
      px      :     0.753086
      py      :     0.749247
      dz2     :     0.064273  d :     0.269593
      dxz     :     0.072939
      dyz     :     0.054708
      dx2y2   :     0.042003
      dxy     :     0.035670
      f0      :     0.006860  f :     0.024898
      f+1     :     0.003878
      f-1     :     0.003552
      f+2     :     0.002773
      f-2     :     0.003240
      f+3     :     0.003138
      f-3     :     0.001456

 43 O s       :     3.801018  s :     3.801018
      pz      :     1.421806  p :     4.550546
      px      :     1.647288
      py      :     1.481451
      dz2     :     0.009525  d :     0.030790
      dxz     :     0.008514
      dyz     :     0.008940
      dx2y2   :     0.002001
      dxy     :     0.001809
      f0      :     0.000500  f :     0.001907
      f+1     :     0.000471
      f-1     :     0.000404
      f+2     :     0.000266
      f-2     :     0.000240
      f+3     :     0.000010
      f-3     :     0.000015

 44 O s       :     3.751471  s :     3.751471
      pz      :     1.504945  p :     4.438021
      px      :     1.315668
      py      :     1.617408
      dz2     :     0.009969  d :     0.040851
      dxz     :     0.010582
      dyz     :     0.005328
      dx2y2   :     0.007059
      dxy     :     0.007914
      f0      :     0.000198  f :     0.002096
      f+1     :     0.000369
      f-1     :     0.000144
      f+2     :     0.000258
      f-2     :     0.000304
      f+3     :     0.000393
      f-3     :     0.000431

 45 C s       :     3.262086  s :     3.262086
      pz      :     0.819866  p :     2.903947
      px      :     0.986953
      py      :     1.097128
      dz2     :     0.018471  d :     0.087791
      dxz     :     0.019009
      dyz     :     0.027375
      dx2y2   :     0.010714
      dxy     :     0.012223
      f0      :     0.001339  f :     0.007384
      f+1     :     0.001293
      f-1     :     0.000692
      f+2     :     0.001562
      f-2     :     0.001787
      f+3     :     0.000288
      f-3     :     0.000423

 46 C s       :     3.155360  s :     3.155360
      pz      :     0.795146  p :     2.763740
      px      :     1.051455
      py      :     0.917140
      dz2     :     0.020875  d :     0.123898
      dxz     :     0.025542
      dyz     :     0.033907
      dx2y2   :     0.022491
      dxy     :     0.021082
      f0      :     0.001947  f :     0.009235
      f+1     :     0.000862
      f-1     :     0.001720
      f+2     :     0.001691
      f-2     :     0.001291
      f+3     :     0.000736
      f-3     :     0.000989

 47 C s       :     3.173222  s :     3.173222
      pz      :     1.043641  p :     2.985442
      px      :     0.971485
      py      :     0.970316
      dz2     :     0.006498  d :     0.094130
      dxz     :     0.006713
      dyz     :     0.017922
      dx2y2   :     0.039037
      dxy     :     0.023960
      f0      :     0.000820  f :     0.007177
      f+1     :     0.000676
      f-1     :     0.001263
      f+2     :     0.000668
      f-2     :     0.000731
      f+3     :     0.001217
      f-3     :     0.001803

 48 C s       :     3.176893  s :     3.176893
      pz      :     0.871537  p :     2.616216
      px      :     0.846461
      py      :     0.898217
      dz2     :     0.014440  d :     0.147713
      dxz     :     0.023212
      dyz     :     0.021276
      dx2y2   :     0.048562
      dxy     :     0.040224
      f0      :     0.000957  f :     0.009432
      f+1     :     0.000907
      f-1     :     0.001167
      f+2     :     0.001198
      f-2     :     0.000832
      f+3     :     0.001212
      f-3     :     0.003158

 49 C s       :     3.253624  s :     3.253624
      pz      :     1.082615  p :     3.094114
      px      :     0.926449
      py      :     1.085050
      dz2     :     0.008437  d :     0.055003
      dxz     :     0.015745
      dyz     :     0.004112
      dx2y2   :     0.006986
      dxy     :     0.019723
      f0      :     0.000795  f :     0.003218
      f+1     :     0.000291
      f-1     :     0.000083
      f+2     :     0.000471
      f-2     :     0.000026
      f+3     :     0.000798
      f-3     :     0.000755

 50 C s       :     3.144635  s :     3.144635
      pz      :     0.946622  p :     2.927091
      px      :     1.034875
      py      :     0.945595
      dz2     :     0.015899  d :     0.093961
      dxz     :     0.021279
      dyz     :     0.028205
      dx2y2   :     0.016065
      dxy     :     0.012514
      f0      :     0.001263  f :     0.005436
      f+1     :     0.000891
      f-1     :     0.001101
      f+2     :     0.000327
      f-2     :     0.000335
      f+3     :     0.000849
      f-3     :     0.000670

 51 C s       :     3.215788  s :     3.215788
      pz      :     0.965628  p :     2.977762
      px      :     1.029029
      py      :     0.983105
      dz2     :     0.017383  d :     0.097931
      dxz     :     0.020792
      dyz     :     0.027752
      dx2y2   :     0.021353
      dxy     :     0.010651
      f0      :     0.001302  f :     0.005613
      f+1     :     0.000963
      f-1     :     0.001101
      f+2     :     0.000249
      f-2     :     0.000434
      f+3     :     0.000795
      f-3     :     0.000769

 52 C s       :     3.159545  s :     3.159545
      pz      :     0.958913  p :     2.949259
      px      :     1.015305
      py      :     0.975041
      dz2     :     0.014999  d :     0.095622
      dxz     :     0.020938
      dyz     :     0.027065
      dx2y2   :     0.020129
      dxy     :     0.012491
      f0      :     0.001273  f :     0.005551
      f+1     :     0.000853
      f-1     :     0.001105
      f+2     :     0.000291
      f-2     :     0.000472
      f+3     :     0.000788
      f-3     :     0.000769

 53 C s       :     3.062708  s :     3.062708
      pz      :     0.899004  p :     2.731506
      px      :     0.903910
      py      :     0.928592
      dz2     :     0.030178  d :     0.143819
      dxz     :     0.032217
      dyz     :     0.025626
      dx2y2   :     0.025783
      dxy     :     0.030015
      f0      :     0.001379  f :     0.007863
      f+1     :     0.001760
      f-1     :     0.000955
      f+2     :     0.000409
      f-2     :     0.000988
      f+3     :     0.001074
      f-3     :     0.001298

 54 C s       :     3.272672  s :     3.272672
      pz      :     1.063070  p :     3.122847
      px      :     0.985091
      py      :     1.074685
      dz2     :     0.017358  d :     0.057351
      dxz     :     0.008582
      dyz     :     0.003690
      dx2y2   :     0.005424
      dxy     :     0.022296
      f0      :     0.000683  f :     0.003323
      f+1     :     0.000696
      f-1     :     0.000094
      f+2     :     0.000212
      f-2     :     0.000364
      f+3     :     0.000793
      f-3     :     0.000482

 55 C s       :     3.162516  s :     3.162516
      pz      :     0.958980  p :     2.945458
      px      :     1.001738
      py      :     0.984741
      dz2     :     0.015135  d :     0.096109
      dxz     :     0.026366
      dyz     :     0.023271
      dx2y2   :     0.019011
      dxy     :     0.012326
      f0      :     0.001288  f :     0.005562
      f+1     :     0.000888
      f-1     :     0.000872
      f+2     :     0.000283
      f-2     :     0.000717
      f+3     :     0.000785
      f-3     :     0.000729

 56 C s       :     3.174602  s :     3.174602
      pz      :     0.976619  p :     2.981037
      px      :     1.007900
      py      :     0.996518
      dz2     :     0.014949  d :     0.097400
      dxz     :     0.027123
      dyz     :     0.022946
      dx2y2   :     0.020785
      dxy     :     0.011597
      f0      :     0.001353  f :     0.005631
      f+1     :     0.000925
      f-1     :     0.000787
      f+2     :     0.000187
      f-2     :     0.000811
      f+3     :     0.000820
      f-3     :     0.000748

 57 C s       :     3.161826  s :     3.161826
      pz      :     0.966106  p :     2.945489
      px      :     0.988201
      py      :     0.991181
      dz2     :     0.014254  d :     0.096096
      dxz     :     0.025696
      dyz     :     0.021650
      dx2y2   :     0.021240
      dxy     :     0.013257
      f0      :     0.001221  f :     0.005562
      f+1     :     0.000858
      f-1     :     0.000755
      f+2     :     0.000268
      f-2     :     0.000872
      f+3     :     0.000850
      f-3     :     0.000740

 58 C s       :     3.060662  s :     3.060662
      pz      :     0.897601  p :     2.730621
      px      :     0.900614
      py      :     0.932405
      dz2     :     0.032780  d :     0.143724
      dxz     :     0.033268
      dyz     :     0.024165
      dx2y2   :     0.027259
      dxy     :     0.026252
      f0      :     0.001515  f :     0.007863
      f+1     :     0.001511
      f-1     :     0.000775
      f+2     :     0.000644
      f-2     :     0.001382
      f+3     :     0.001205
      f-3     :     0.000830

 59 C s       :     3.272668  s :     3.272668
      pz      :     1.039060  p :     3.122858
      px      :     1.019763
      py      :     1.064035
      dz2     :     0.019587  d :     0.057476
      dxz     :     0.007656
      dyz     :     0.004643
      dx2y2   :     0.008077
      dxy     :     0.017513
      f0      :     0.000455  f :     0.003325
      f+1     :     0.001002
      f-1     :     0.000120
      f+2     :     0.000319
      f-2     :     0.000511
      f+3     :     0.000516
      f-3     :     0.000400

 60 C s       :     3.163441  s :     3.163441
      pz      :     0.969504  p :     2.944544
      px      :     0.973112
      py      :     1.001928
      dz2     :     0.016814  d :     0.096163
      dxz     :     0.025751
      dyz     :     0.018944
      dx2y2   :     0.021212
      dxy     :     0.013442
      f0      :     0.001062  f :     0.005559
      f+1     :     0.000943
      f-1     :     0.000535
      f+2     :     0.000355
      f-2     :     0.001114
      f+3     :     0.000915
      f-3     :     0.000635

 61 C s       :     3.179088  s :     3.179088
      pz      :     0.981774  p :     2.975712
      px      :     0.986909
      py      :     1.007029
      dz2     :     0.016572  d :     0.097370
      dxz     :     0.026820
      dyz     :     0.018839
      dx2y2   :     0.021394
      dxy     :     0.013745
      f0      :     0.001132  f :     0.005627
      f+1     :     0.000928
      f-1     :     0.000490
      f+2     :     0.000409
      f-2     :     0.001127
      f+3     :     0.000923
      f-3     :     0.000619

 62 C s       :     3.172115  s :     3.172115
      pz      :     0.977444  p :     2.946097
      px      :     0.958742
      py      :     1.009911
      dz2     :     0.015762  d :     0.095995
      dxz     :     0.026029
      dyz     :     0.016981
      dx2y2   :     0.022232
      dxy     :     0.014992
      f0      :     0.000912  f :     0.005527
      f+1     :     0.000970
      f-1     :     0.000474
      f+2     :     0.000409
      f-2     :     0.001149
      f+3     :     0.000979
      f-3     :     0.000634

 63 C s       :     3.071646  s :     3.071646
      pz      :     0.897310  p :     2.742140
      px      :     0.900246
      py      :     0.944584
      dz2     :     0.033087  d :     0.146799
      dxz     :     0.036957
      dyz     :     0.024016
      dx2y2   :     0.029774
      dxy     :     0.022966
      f0      :     0.001527  f :     0.007913
      f+1     :     0.001308
      f-1     :     0.000753
      f+2     :     0.001176
      f-2     :     0.001386
      f+3     :     0.001046
      f-3     :     0.000716

 64 C s       :     3.262877  s :     3.262877
      pz      :     1.011894  p :     3.108512
      px      :     1.047354
      py      :     1.049264
      dz2     :     0.016626  d :     0.058035
      dxz     :     0.013625
      dyz     :     0.005933
      dx2y2   :     0.011082
      dxy     :     0.010768
      f0      :     0.000493  f :     0.003364
      f+1     :     0.000816
      f-1     :     0.000272
      f+2     :     0.000674
      f-2     :     0.000536
      f+3     :     0.000208
      f-3     :     0.000365

 65 C s       :     3.250853  s :     3.250853
      pz      :     1.069206  p :     3.083958
      px      :     0.978728
      py      :     1.036024
      dz2     :     0.005881  d :     0.058808
      dxz     :     0.019705
      dyz     :     0.007001
      dx2y2   :     0.019152
      dxy     :     0.007069
      f0      :     0.000234  f :     0.003414
      f+1     :     0.000812
      f-1     :     0.000148
      f+2     :     0.000321
      f-2     :     0.000593
      f+3     :     0.000796
      f-3     :     0.000509

 66 H s       :     0.838910  s :     0.838910
      pz      :     0.006871  p :     0.023812
      px      :     0.004941
      py      :     0.012000

 67 H s       :     0.811372  s :     0.811372
      pz      :     0.005203  p :     0.025577
      px      :     0.015697
      py      :     0.004678

 68 H s       :     0.818399  s :     0.818399
      pz      :     0.006481  p :     0.022768
      px      :     0.004604
      py      :     0.011683

 69 H s       :     0.863957  s :     0.863957
      pz      :     0.008886  p :     0.022669
      px      :     0.009365
      py      :     0.004418

 70 H s       :     0.859054  s :     0.859054
      pz      :     0.005426  p :     0.022076
      px      :     0.004917
      py      :     0.011733

 71 H s       :     0.838674  s :     0.838674
      pz      :     0.005809  p :     0.021390
      px      :     0.010736
      py      :     0.004845

 72 H s       :     0.836302  s :     0.836302
      pz      :     0.005691  p :     0.021214
      px      :     0.004982
      py      :     0.010541

 73 H s       :     0.838530  s :     0.838530
      pz      :     0.005296  p :     0.021185
      px      :     0.007860
      py      :     0.008028

 74 H s       :     0.845880  s :     0.845880
      pz      :     0.004970  p :     0.021430
      px      :     0.004534
      py      :     0.011926

 75 H s       :     0.837307  s :     0.837307
      pz      :     0.005279  p :     0.022289
      px      :     0.011966
      py      :     0.005044

 76 H s       :     0.828758  s :     0.828758
      pz      :     0.005079  p :     0.022544
      px      :     0.004872
      py      :     0.012593

 77 H s       :     0.832911  s :     0.832911
      pz      :     0.004687  p :     0.022181
      px      :     0.011972
      py      :     0.005522

 78 H s       :     0.823352  s :     0.823352
      pz      :     0.007254  p :     0.021831
      px      :     0.009166
      py      :     0.005411

 79 H s       :     0.817944  s :     0.817944
      pz      :     0.011498  p :     0.021727
      px      :     0.005887
      py      :     0.004342

 80 H s       :     0.821139  s :     0.821139
      pz      :     0.004639  p :     0.022636
      px      :     0.008475
      py      :     0.009521

 81 H s       :     0.828687  s :     0.828687
      pz      :     0.004285  p :     0.021623
      px      :     0.011321
      py      :     0.006017

 82 H s       :     0.830298  s :     0.830298
      pz      :     0.011800  p :     0.021712
      px      :     0.004994
      py      :     0.004917

 83 H s       :     0.827203  s :     0.827203
      pz      :     0.006045  p :     0.022258
      px      :     0.004795
      py      :     0.011418

 84 H s       :     0.860568  s :     0.860568
      pz      :     0.008700  p :     0.022241
      px      :     0.009194
      py      :     0.004347

 85 H s       :     0.875282  s :     0.875282
      pz      :     0.005815  p :     0.022230
      px      :     0.004832
      py      :     0.011582

 86 H s       :     0.839701  s :     0.839701
      pz      :     0.004645  p :     0.021164
      px      :     0.004705
      py      :     0.011814

 87 H s       :     0.840536  s :     0.840536
      pz      :     0.008742  p :     0.021162
      px      :     0.008050
      py      :     0.004370

 88 H s       :     0.837774  s :     0.837774
      pz      :     0.005873  p :     0.021408
      px      :     0.010072
      py      :     0.005463

 89 H s       :     0.862251  s :     0.862251
      pz      :     0.005069  p :     0.021473
      px      :     0.010691
      py      :     0.005713

 90 H s       :     0.860107  s :     0.860107
      pz      :     0.004832  p :     0.021284
      px      :     0.007971
      py      :     0.008481

 91 H s       :     0.837821  s :     0.837821
      pz      :     0.012288  p :     0.021302
      px      :     0.004463
      py      :     0.004550

 92 H s       :     0.843863  s :     0.843863
      pz      :     0.004871  p :     0.021426
      px      :     0.010768
      py      :     0.005787

 93 H s       :     0.845508  s :     0.845508
      pz      :     0.004812  p :     0.021482
      px      :     0.008237
      py      :     0.008434

 94 H s       :     0.822715  s :     0.822715
      pz      :     0.004504  p :     0.021684
      px      :     0.012638
      py      :     0.004541

 95 H s       :     0.822926  s :     0.822926
      pz      :     0.007565  p :     0.021407
      px      :     0.004448
      py      :     0.009395

 96 H s       :     0.825389  s :     0.825389
      pz      :     0.010993  p :     0.021336
      px      :     0.005007
      py      :     0.005336

 97 H s       :     0.846493  s :     0.846493
      pz      :     0.009125  p :     0.023202
      px      :     0.005152
      py      :     0.008926

 98 H s       :     0.818579  s :     0.818579
      pz      :     0.003923  p :     0.020790
      px      :     0.010819
      py      :     0.006047

 99 H s       :     0.828627  s :     0.828627
      pz      :     0.007123  p :     0.020485
      px      :     0.005560
      py      :     0.007802

100 H s       :     0.826419  s :     0.826419
      pz      :     0.005793  p :     0.020518
      px      :     0.004274
      py      :     0.010450

101 H s       :     0.840753  s :     0.840753
      pz      :     0.005868  p :     0.021362
      px      :     0.008635
      py      :     0.006859

102 H s       :     0.817577  s :     0.817577
      pz      :     0.006473  p :     0.021208
      px      :     0.010561
      py      :     0.004174

103 H s       :     0.839144  s :     0.839144
      pz      :     0.005256  p :     0.022511
      px      :     0.013342
      py      :     0.003912

104 H s       :     0.837649  s :     0.837649
      pz      :     0.006177  p :     0.021329
      px      :     0.006019
      py      :     0.009133

105 H s       :     0.838782  s :     0.838782
      pz      :     0.005549  p :     0.022121
      px      :     0.006179
      py      :     0.010393

106 H s       :     0.826419  s :     0.826419
      pz      :     0.011949  p :     0.021827
      px      :     0.005200
      py      :     0.004677

107 H s       :     0.857680  s :     0.857680
      pz      :     0.005348  p :     0.021527
      px      :     0.011915
      py      :     0.004263

108 H s       :     0.861674  s :     0.861674
      pz      :     0.006423  p :     0.021257
      px      :     0.005686
      py      :     0.009149

109 H s       :     0.853591  s :     0.853591
      pz      :     0.005596  p :     0.021977
      px      :     0.011921
      py      :     0.004460

110 H s       :     0.868680  s :     0.868680
      pz      :     0.006312  p :     0.021228
      px      :     0.005622
      py      :     0.009294

111 H s       :     0.871686  s :     0.871686
      pz      :     0.005960  p :     0.021367
      px      :     0.011045
      py      :     0.004362

112 H s       :     0.877497  s :     0.877497
      pz      :     0.005999  p :     0.021066
      px      :     0.005850
      py      :     0.009217

113 H s       :     0.911308  s :     0.911308
      pz      :     0.005805  p :     0.021506
      px      :     0.005809
      py      :     0.009892

114 H s       :     0.839831  s :     0.839831
      pz      :     0.012386  p :     0.021825
      px      :     0.004684
      py      :     0.004756

115 H s       :     0.860438  s :     0.860438
      pz      :     0.005424  p :     0.021060
      px      :     0.006269
      py      :     0.009368

116 H s       :     0.841263  s :     0.841263
      pz      :     0.004810  p :     0.021793
      px      :     0.007696
      py      :     0.009287

117 H s       :     0.874280  s :     0.874280
      pz      :     0.007053  p :     0.021356
      px      :     0.009819
      py      :     0.004484

118 H s       :     0.879604  s :     0.879604
      pz      :     0.005517  p :     0.021063
      px      :     0.005641
      py      :     0.009906

119 H s       :     0.864486  s :     0.864486
      pz      :     0.007429  p :     0.022235
      px      :     0.010068
      py      :     0.004739

120 H s       :     0.880720  s :     0.880720
      pz      :     0.005578  p :     0.021108
      px      :     0.005384
      py      :     0.010146

121 H s       :     0.874854  s :     0.874854
      pz      :     0.007693  p :     0.021358
      px      :     0.009109
      py      :     0.004556

122 H s       :     0.880235  s :     0.880235
      pz      :     0.005362  p :     0.021066
      px      :     0.005498
      py      :     0.010206

123 H s       :     0.913164  s :     0.913164
      pz      :     0.005234  p :     0.021501
      px      :     0.005301
      py      :     0.010966

124 H s       :     0.840403  s :     0.840403
      pz      :     0.011695  p :     0.021808
      px      :     0.005485
      py      :     0.004627

125 H s       :     0.861208  s :     0.861208
      pz      :     0.004911  p :     0.021056
      px      :     0.005635
      py      :     0.010510

126 H s       :     0.840874  s :     0.840874
      pz      :     0.004754  p :     0.021816
      px      :     0.009341
      py      :     0.007720

127 H s       :     0.874869  s :     0.874869
      pz      :     0.008744  p :     0.021348
      px      :     0.007691
      py      :     0.004912

128 H s       :     0.880132  s :     0.880132
      pz      :     0.005155  p :     0.021060
      px      :     0.005076
      py      :     0.010829

129 H s       :     0.861686  s :     0.861686
      pz      :     0.009055  p :     0.022151
      px      :     0.007717
      py      :     0.005380

130 H s       :     0.881784  s :     0.881784
      pz      :     0.005288  p :     0.021103
      px      :     0.004832
      py      :     0.010983

131 H s       :     0.874238  s :     0.874238
      pz      :     0.009289  p :     0.021256
      px      :     0.006871
      py      :     0.005096

132 H s       :     0.879270  s :     0.879270
      pz      :     0.005081  p :     0.021008
      px      :     0.004848
      py      :     0.011078

133 H s       :     0.906294  s :     0.906294
      pz      :     0.004882  p :     0.021455
      px      :     0.004797
      py      :     0.011776

134 H s       :     0.847684  s :     0.847684
      pz      :     0.009869  p :     0.021227
      px      :     0.006858
      py      :     0.004500

135 H s       :     0.860444  s :     0.860444
      pz      :     0.004676  p :     0.020983
      px      :     0.005163
      py      :     0.011144

136 H s       :     0.841405  s :     0.841405
      pz      :     0.005259  p :     0.021642
      px      :     0.009934
      py      :     0.006449

137 H s       :     0.847306  s :     0.847306
      pz      :     0.009247  p :     0.021217
      px      :     0.007474
      py      :     0.004496

138 H s       :     0.850093  s :     0.850093
      pz      :     0.008693  p :     0.021155
      px      :     0.006786
      py      :     0.005675

139 H s       :     0.860740  s :     0.860740
      pz      :     0.005029  p :     0.020974
      px      :     0.004583
      py      :     0.011363



                     *******************************
                     * LOEWDIN POPULATION ANALYSIS *
                     *******************************

----------------------
LOEWDIN ATOMIC CHARGES
----------------------
   0 Mg:    0.360013
   1 C :   -0.069416
   2 C :   -0.109239
   3 C :   -0.107114
   4 C :   -0.109886
   5 N :    0.219254
   6 C :   -0.141828
   7 C :   -0.166790
   8 C :   -0.192596
   9 C :   -0.176819
  10 C :   -0.272315
  11 C :   -0.219069
  12 C :   -0.216528
  13 C :   -0.478059
  14 O :    0.080992
  15 O :    0.252832
  16 N :    0.175127
  17 C :   -0.177202
  18 C :   -0.087549
  19 C :   -0.084530
  20 C :   -0.160144
  21 C :   -0.254000
  22 C :   -0.317077
  23 O :    0.072793
  24 C :   -0.258495
  25 N :    0.214721
  26 C :   -0.170857
  27 C :   -0.195926
  28 C :   -0.174823
  29 C :   -0.167973
  30 C :   -0.274166
  31 C :   -0.259473
  32 C :   -0.310991
  33 N :    0.182606
  34 C :   -0.163879
  35 C :   -0.094691
  36 C :   -0.085268
  37 C :   -0.151876
  38 C :   -0.258850
  39 C :   -0.251839
  40 O :    0.088335
  41 C :   -0.109843
  42 C :   -0.465849
  43 O :    0.090012
  44 O :    0.252079
  45 C :   -0.304167
  46 C :   -0.267221
  47 C :   -0.181944
  48 C :   -0.189569
  49 C :   -0.260016
  50 C :   -0.223448
  51 C :   -0.258525
  52 C :   -0.248435
  53 C :   -0.289162
  54 C :   -0.293625
  55 C :   -0.249326
  56 C :   -0.268875
  57 C :   -0.249577
  58 C :   -0.289855
  59 C :   -0.294066
  60 C :   -0.249832
  61 C :   -0.269044
  62 C :   -0.252527
  63 C :   -0.317921
  64 C :   -0.297896
  65 C :   -0.298739
  66 H :    0.167762
  67 H :    0.168652
  68 H :    0.168691
  69 H :    0.172678
  70 H :    0.167778
  71 H :    0.126468
  72 H :    0.131523
  73 H :    0.128432
  74 H :    0.150793
  75 H :    0.147036
  76 H :    0.169889
  77 H :    0.156206
  78 H :    0.138937
  79 H :    0.140791
  80 H :    0.134469
  81 H :    0.133349
  82 H :    0.139052
  83 H :    0.143729
  84 H :    0.167413
  85 H :    0.168611
  86 H :    0.127507
  87 H :    0.130088
  88 H :    0.126592
  89 H :    0.141549
  90 H :    0.142544
  91 H :    0.123753
  92 H :    0.123792
  93 H :    0.126050
  94 H :    0.137160
  95 H :    0.140691
  96 H :    0.139190
  97 H :    0.182944
  98 H :    0.121170
  99 H :    0.117364
 100 H :    0.118504
 101 H :    0.138703
 102 H :    0.140614
 103 H :    0.148664
 104 H :    0.135857
 105 H :    0.129850
 106 H :    0.137442
 107 H :    0.147337
 108 H :    0.147456
 109 H :    0.137891
 110 H :    0.140340
 111 H :    0.141717
 112 H :    0.140451
 113 H :    0.152994
 114 H :    0.121465
 115 H :    0.124641
 116 H :    0.121352
 117 H :    0.140549
 118 H :    0.139728
 119 H :    0.135566
 120 H :    0.138578
 121 H :    0.140301
 122 H :    0.139574
 123 H :    0.152448
 124 H :    0.121305
 125 H :    0.124434
 126 H :    0.121130
 127 H :    0.140316
 128 H :    0.139582
 129 H :    0.136022
 130 H :    0.138567
 131 H :    0.140486
 132 H :    0.139438
 133 H :    0.150543
 134 H :    0.122760
 135 H :    0.123503
 136 H :    0.120754
 137 H :    0.121893
 138 H :    0.121823
 139 H :    0.122737

-------------------------------
LOEWDIN REDUCED ORBITAL CHARGES
-------------------------------
  0 Mgs       :     4.244771  s :     4.244771
      pz      :     2.133934  p :     6.687928
      px      :     2.293108
      py      :     2.260887
      dz2     :     0.081670  d :     0.707288
      dxz     :     0.113542
      dyz     :     0.082555
      dx2y2   :     0.178924
      dxy     :     0.250596

  1 C s       :     2.681645  s :     2.681645
      pz      :     0.898374  p :     2.831096
      px      :     0.948871
      py      :     0.983851
      dz2     :     0.049613  d :     0.499938
      dxz     :     0.071978
      dyz     :     0.078645
      dx2y2   :     0.161055
      dxy     :     0.138648
      f0      :     0.004488  f :     0.056737
      f+1     :     0.004688
      f-1     :     0.004760
      f+2     :     0.008569
      f-2     :     0.006170
      f+3     :     0.012523
      f-3     :     0.015540

  2 C s       :     2.743832  s :     2.743832
      pz      :     0.942215  p :     2.955227
      px      :     1.026136
      py      :     0.986876
      dz2     :     0.026084  d :     0.370206
      dxz     :     0.081369
      dyz     :     0.030846
      dx2y2   :     0.118377
      dxy     :     0.113529
      f0      :     0.003884  f :     0.039975
      f+1     :     0.005150
      f-1     :     0.001959
      f+2     :     0.004859
      f-2     :     0.004755
      f+3     :     0.009036
      f-3     :     0.010333

  3 C s       :     2.745400  s :     2.745400
      pz      :     0.937815  p :     2.956643
      px      :     1.010298
      py      :     1.008530
      dz2     :     0.037919  d :     0.365264
      dxz     :     0.027493
      dyz     :     0.068569
      dx2y2   :     0.124191
      dxy     :     0.107092
      f0      :     0.003187  f :     0.039806
      f+1     :     0.003325
      f-1     :     0.004730
      f+2     :     0.004639
      f-2     :     0.005461
      f+3     :     0.009957
      f-3     :     0.008507

  4 C s       :     2.746577  s :     2.746577
      pz      :     0.938771  p :     2.953090
      px      :     1.025738
      py      :     0.988581
      dz2     :     0.025655  d :     0.370007
      dxz     :     0.080162
      dyz     :     0.031198
      dx2y2   :     0.117913
      dxy     :     0.115078
      f0      :     0.003826  f :     0.040213
      f+1     :     0.005032
      f-1     :     0.002152
      f+2     :     0.004734
      f-2     :     0.004927
      f+3     :     0.009006
      f-3     :     0.010536

  5 N s       :     2.975979  s :     2.975979
      pz      :     1.134565  p :     3.574018
      px      :     1.154921
      py      :     1.284532
      dz2     :     0.020840  d :     0.212239
      dxz     :     0.044814
      dyz     :     0.020170
      dx2y2   :     0.063146
      dxy     :     0.063268
      f0      :     0.001287  f :     0.018510
      f+1     :     0.001536
      f-1     :     0.001330
      f+2     :     0.002878
      f-2     :     0.001895
      f+3     :     0.003641
      f-3     :     0.005943

  6 C s       :     2.698463  s :     2.698463
      pz      :     0.842347  p :     2.745388
      px      :     0.931424
      py      :     0.971617
      dz2     :     0.057553  d :     0.621147
      dxz     :     0.118326
      dyz     :     0.076164
      dx2y2   :     0.183859
      dxy     :     0.185244
      f0      :     0.005686  f :     0.076831
      f+1     :     0.006797
      f-1     :     0.005132
      f+2     :     0.012223
      f-2     :     0.007117
      f+3     :     0.017505
      f-3     :     0.022371

  7 C s       :     2.712302  s :     2.712302
      pz      :     0.982153  p :     2.913439
      px      :     0.970420
      py      :     0.960865
      dz2     :     0.074955  d :     0.487735
      dxz     :     0.124174
      dyz     :     0.089218
      dx2y2   :     0.120092
      dxy     :     0.079295
      f0      :     0.006640  f :     0.053315
      f+1     :     0.007028
      f-1     :     0.007388
      f+2     :     0.008213
      f-2     :     0.005648
      f+3     :     0.010559
      f-3     :     0.007838

  8 C s       :     2.717994  s :     2.717994
      pz      :     0.997675  p :     2.927493
      px      :     0.956577
      py      :     0.973240
      dz2     :     0.112112  d :     0.493047
      dxz     :     0.109611
      dyz     :     0.089872
      dx2y2   :     0.089467
      dxy     :     0.091986
      f0      :     0.006713  f :     0.054061
      f+1     :     0.010920
      f-1     :     0.008147
      f+2     :     0.006203
      f-2     :     0.007821
      f+3     :     0.007811
      f-3     :     0.006445

  9 C s       :     2.707395  s :     2.707395
      pz      :     0.833846  p :     2.759152
      px      :     1.008795
      py      :     0.916511
      dz2     :     0.068351  d :     0.632580
      dxz     :     0.121754
      dyz     :     0.082810
      dx2y2   :     0.175236
      dxy     :     0.184430
      f0      :     0.005617  f :     0.077692
      f+1     :     0.007004
      f-1     :     0.007213
      f+2     :     0.011011
      f-2     :     0.009378
      f+3     :     0.012122
      f-3     :     0.025345

 10 C s       :     2.829690  s :     2.829690
      pz      :     1.012764  p :     3.159374
      px      :     1.072890
      py      :     1.073720
      dz2     :     0.057450  d :     0.259243
      dxz     :     0.070890
      dyz     :     0.070513
      dx2y2   :     0.027054
      dxy     :     0.033335
      f0      :     0.005054  f :     0.024008
      f+1     :     0.005518
      f-1     :     0.005885
      f+2     :     0.002539
      f-2     :     0.002146
      f+3     :     0.001611
      f-3     :     0.001255

 11 C s       :     2.768658  s :     2.768658
      pz      :     0.989221  p :     3.021719
      px      :     1.020048
      py      :     1.012449
      dz2     :     0.094572  d :     0.391171
      dxz     :     0.088668
      dyz     :     0.080303
      dx2y2   :     0.085434
      dxy     :     0.042193
      f0      :     0.008163  f :     0.037521
      f+1     :     0.005448
      f-1     :     0.004998
      f+2     :     0.005784
      f-2     :     0.006896
      f+3     :     0.002212
      f-3     :     0.004021

 12 C s       :     2.770845  s :     2.770845
      pz      :     0.994375  p :     3.046863
      px      :     1.030367
      py      :     1.022120
      dz2     :     0.089871  d :     0.362077
      dxz     :     0.077887
      dyz     :     0.079416
      dx2y2   :     0.069332
      dxy     :     0.045570
      f0      :     0.006770  f :     0.036744
      f+1     :     0.005784
      f-1     :     0.005327
      f+2     :     0.005506
      f-2     :     0.007004
      f+3     :     0.002071
      f-3     :     0.004282

 13 C s       :     2.753277  s :     2.753277
      pz      :     0.880902  p :     2.623630
      px      :     0.967098
      py      :     0.775630
      dz2     :     0.150509  d :     0.946956
      dxz     :     0.302560
      dyz     :     0.070497
      dx2y2   :     0.191870
      dxy     :     0.231521
      f0      :     0.019554  f :     0.154196
      f+1     :     0.032061
      f-1     :     0.007594
      f+2     :     0.026992
      f-2     :     0.019876
      f+3     :     0.023991
      f-3     :     0.024128

 14 O s       :     3.391875  s :     3.391875
      pz      :     1.534500  p :     4.453634
      px      :     1.506584
      py      :     1.412550
      dz2     :     0.008772  d :     0.067292
      dxz     :     0.019098
      dyz     :     0.001024
      dx2y2   :     0.023017
      dxy     :     0.015381
      f0      :     0.000685  f :     0.006206
      f+1     :     0.001189
      f-1     :     0.000090
      f+2     :     0.001102
      f-2     :     0.000203
      f+3     :     0.001631
      f-3     :     0.001307

 15 O s       :     3.266514  s :     3.266514
      pz      :     1.348748  p :     4.369587
      px      :     1.543620
      py      :     1.477219
      dz2     :     0.023185  d :     0.104739
      dxz     :     0.031055
      dyz     :     0.021333
      dx2y2   :     0.014118
      dxy     :     0.015048
      f0      :     0.000871  f :     0.006327
      f+1     :     0.001262
      f-1     :     0.000792
      f+2     :     0.001134
      f-2     :     0.001044
      f+3     :     0.000620
      f-3     :     0.000603

 16 N s       :     2.971267  s :     2.971267
      pz      :     1.196847  p :     3.630925
      px      :     1.281692
      py      :     1.152385
      dz2     :     0.022356  d :     0.204275
      dxz     :     0.023332
      dyz     :     0.036886
      dx2y2   :     0.062528
      dxy     :     0.059173
      f0      :     0.001353  f :     0.018406
      f+1     :     0.001226
      f-1     :     0.001738
      f+2     :     0.002401
      f-2     :     0.002155
      f+3     :     0.005903
      f-3     :     0.003629

 17 C s       :     2.690910  s :     2.690910
      pz      :     0.855920  p :     2.768861
      px      :     0.989481
      py      :     0.923460
      dz2     :     0.069562  d :     0.638487
      dxz     :     0.093296
      dyz     :     0.109261
      dx2y2   :     0.181975
      dxy     :     0.184394
      f0      :     0.005372  f :     0.078944
      f+1     :     0.004825
      f-1     :     0.008333
      f+2     :     0.012698
      f-2     :     0.008951
      f+3     :     0.020700
      f-3     :     0.018065

 18 C s       :     2.706708  s :     2.706708
      pz      :     0.834720  p :     2.802314
      px      :     0.981790
      py      :     0.985804
      dz2     :     0.050207  d :     0.520041
      dxz     :     0.080774
      dyz     :     0.082847
      dx2y2   :     0.161720
      dxy     :     0.144493
      f0      :     0.003985  f :     0.058484
      f+1     :     0.004674
      f-1     :     0.005583
      f+2     :     0.008985
      f-2     :     0.006596
      f+3     :     0.009269
      f-3     :     0.019392

 19 C s       :     2.700455  s :     2.700455
      pz      :     0.912314  p :     2.856997
      px      :     0.967122
      py      :     0.977561
      dz2     :     0.051707  d :     0.472016
      dxz     :     0.063780
      dyz     :     0.065300
      dx2y2   :     0.145938
      dxy     :     0.145291
      f0      :     0.003995  f :     0.055063
      f+1     :     0.005912
      f-1     :     0.003582
      f+2     :     0.005809
      f-2     :     0.007810
      f+3     :     0.011615
      f-3     :     0.016340

 20 C s       :     2.691826  s :     2.691826
      pz      :     0.845323  p :     2.748003
      px      :     0.923250
      py      :     0.979430
      dz2     :     0.060903  d :     0.641267
      dxz     :     0.116297
      dyz     :     0.092451
      dx2y2   :     0.184346
      dxy     :     0.187271
      f0      :     0.005283  f :     0.079048
      f+1     :     0.007188
      f-1     :     0.005594
      f+2     :     0.008155
      f-2     :     0.012852
      f+3     :     0.026572
      f-3     :     0.013405

 21 C s       :     2.811895  s :     2.811895
      pz      :     1.069483  p :     3.166799
      px      :     1.061249
      py      :     1.036066
      dz2     :     0.048424  d :     0.250895
      dxz     :     0.045857
      dyz     :     0.038175
      dx2y2   :     0.042460
      dxy     :     0.075979
      f0      :     0.002332  f :     0.024410
      f+1     :     0.002437
      f-1     :     0.003975
      f+2     :     0.004046
      f-2     :     0.002765
      f+3     :     0.003688
      f-3     :     0.005167

 22 C s       :     2.756351  s :     2.756351
      pz      :     0.800887  p :     2.673373
      px      :     0.999213
      py      :     0.873273
      dz2     :     0.111212  d :     0.776701
      dxz     :     0.145667
      dyz     :     0.127747
      dx2y2   :     0.185863
      dxy     :     0.206211
      f0      :     0.008928  f :     0.110652
      f+1     :     0.008312
      f-1     :     0.016103
      f+2     :     0.021501
      f-2     :     0.014425
      f+3     :     0.017492
      f-3     :     0.023893

 23 O s       :     3.398459  s :     3.398459
      pz      :     1.388660  p :     4.454407
      px      :     1.633224
      py      :     1.432523
      dz2     :     0.008777  d :     0.068448
      dxz     :     0.008559
      dyz     :     0.019036
      dx2y2   :     0.014725
      dxy     :     0.017351
      f0      :     0.000458  f :     0.005893
      f+1     :     0.000226
      f-1     :     0.000889
      f+2     :     0.001197
      f-2     :     0.001238
      f+3     :     0.000891
      f-3     :     0.000995

 24 C s       :     2.833660  s :     2.833660
      pz      :     1.063668  p :     3.181349
      px      :     1.049720
      py      :     1.067961
      dz2     :     0.051544  d :     0.220651
      dxz     :     0.032541
      dyz     :     0.040726
      dx2y2   :     0.050467
      dxy     :     0.045374
      f0      :     0.002512  f :     0.022835
      f+1     :     0.003615
      f-1     :     0.002052
      f+2     :     0.004335
      f-2     :     0.003444
      f+3     :     0.002147
      f-3     :     0.004731

 25 N s       :     2.974179  s :     2.974179
      pz      :     1.130367  p :     3.579042
      px      :     1.169041
      py      :     1.279634
      dz2     :     0.020526  d :     0.213596
      dxz     :     0.042869
      dyz     :     0.020268
      dx2y2   :     0.064807
      dxy     :     0.065126
      f0      :     0.001244  f :     0.018462
      f+1     :     0.001561
      f-1     :     0.001284
      f+2     :     0.002847
      f-2     :     0.001737
      f+3     :     0.003648
      f-3     :     0.006141

 26 C s       :     2.707681  s :     2.707681
      pz      :     0.821218  p :     2.752044
      px      :     0.956349
      py      :     0.974476
      dz2     :     0.054197  d :     0.633377
      dxz     :     0.124091
      dyz     :     0.073512
      dx2y2   :     0.190952
      dxy     :     0.190625
      f0      :     0.005599  f :     0.077756
      f+1     :     0.006989
      f-1     :     0.004624
      f+2     :     0.012327
      f-2     :     0.006854
      f+3     :     0.017732
      f-3     :     0.023632

 27 C s       :     2.717634  s :     2.717634
      pz      :     0.993588  p :     2.930796
      px      :     0.971011
      py      :     0.966197
      dz2     :     0.078963  d :     0.493321
      dxz     :     0.126312
      dyz     :     0.089398
      dx2y2   :     0.116827
      dxy     :     0.081821
      f0      :     0.007149  f :     0.054175
      f+1     :     0.006967
      f-1     :     0.007619
      f+2     :     0.008207
      f-2     :     0.005671
      f+3     :     0.010826
      f-3     :     0.007736

 28 C s       :     2.717575  s :     2.717575
      pz      :     0.987035  p :     2.916054
      px      :     0.957535
      py      :     0.971484
      dz2     :     0.106020  d :     0.488203
      dxz     :     0.107594
      dyz     :     0.092262
      dx2y2   :     0.089094
      dxy     :     0.093234
      f0      :     0.006756  f :     0.052992
      f+1     :     0.010312
      f-1     :     0.007069
      f+2     :     0.006444
      f-2     :     0.007782
      f+3     :     0.008051
      f-3     :     0.006576

 29 C s       :     2.707286  s :     2.707286
      pz      :     0.835145  p :     2.759855
      px      :     1.010026
      py      :     0.914684
      dz2     :     0.064143  d :     0.624316
      dxz     :     0.118833
      dyz     :     0.082395
      dx2y2   :     0.175235
      dxy     :     0.183710
      f0      :     0.005479  f :     0.076516
      f+1     :     0.006625
      f-1     :     0.007126
      f+2     :     0.010441
      f-2     :     0.009201
      f+3     :     0.012509
      f-3     :     0.025136

 30 C s       :     2.829922  s :     2.829922
      pz      :     1.043731  p :     3.160138
      px      :     1.065548
      py      :     1.050860
      dz2     :     0.055036  d :     0.260072
      dxz     :     0.080450
      dyz     :     0.040248
      dx2y2   :     0.056618
      dxy     :     0.027721
      f0      :     0.005251  f :     0.024035
      f+1     :     0.002828
      f-1     :     0.003750
      f+2     :     0.004244
      f-2     :     0.003410
      f+3     :     0.001637
      f-3     :     0.002914

 31 C s       :     2.778400  s :     2.778400
      pz      :     0.986212  p :     3.043912
      px      :     1.030242
      py      :     1.027458
      dz2     :     0.106757  d :     0.399770
      dxz     :     0.063313
      dyz     :     0.096327
      dx2y2   :     0.043024
      dxy     :     0.090350
      f0      :     0.005308  f :     0.037391
      f+1     :     0.006241
      f-1     :     0.009687
      f+2     :     0.004256
      f-2     :     0.004625
      f+3     :     0.003254
      f-3     :     0.004021

 32 C s       :     2.828452  s :     2.828452
      pz      :     1.057653  p :     3.194867
      px      :     1.075658
      py      :     1.061556
      dz2     :     0.084901  d :     0.263118
      dxz     :     0.011340
      dyz     :     0.040390
      dx2y2   :     0.040253
      dxy     :     0.086235
      f0      :     0.002969  f :     0.024554
      f+1     :     0.001464
      f-1     :     0.004667
      f+2     :     0.003958
      f-2     :     0.004264
      f+3     :     0.003204
      f-3     :     0.004029

 33 N s       :     2.967953  s :     2.967953
      pz      :     1.188849  p :     3.625767
      px      :     1.302033
      py      :     1.134885
      dz2     :     0.022132  d :     0.204647
      dxz     :     0.021553
      dyz     :     0.037866
      dx2y2   :     0.063715
      dxy     :     0.059381
      f0      :     0.001349  f :     0.019028
      f+1     :     0.001294
      f-1     :     0.001672
      f+2     :     0.002106
      f-2     :     0.002509
      f+3     :     0.006104
      f-3     :     0.003993

 34 C s       :     2.694985  s :     2.694985
      pz      :     0.862840  p :     2.765734
      px      :     0.985577
      py      :     0.917317
      dz2     :     0.064274  d :     0.626103
      dxz     :     0.095167
      dyz     :     0.103593
      dx2y2   :     0.178727
      dxy     :     0.184343
      f0      :     0.005162  f :     0.077057
      f+1     :     0.004938
      f-1     :     0.007839
      f+2     :     0.012052
      f-2     :     0.008813
      f+3     :     0.018135
      f-3     :     0.020118

 35 C s       :     2.707556  s :     2.707556
      pz      :     0.849453  p :     2.811437
      px      :     0.978598
      py      :     0.983386
      dz2     :     0.047715  d :     0.517373
      dxz     :     0.076789
      dyz     :     0.084086
      dx2y2   :     0.168029
      dxy     :     0.140753
      f0      :     0.003941  f :     0.058325
      f+1     :     0.004305
      f-1     :     0.005740
      f+2     :     0.009764
      f-2     :     0.005653
      f+3     :     0.009374
      f-3     :     0.019547

 36 C s       :     2.682244  s :     2.682244
      pz      :     0.906714  p :     2.843978
      px      :     0.961219
      py      :     0.976045
      dz2     :     0.054117  d :     0.496369
      dxz     :     0.057913
      dyz     :     0.077396
      dx2y2   :     0.133965
      dxy     :     0.172977
      f0      :     0.004223  f :     0.062678
      f+1     :     0.005418
      f-1     :     0.004380
      f+2     :     0.005060
      f-2     :     0.010175
      f+3     :     0.018459
      f-3     :     0.014964

 37 C s       :     2.661242  s :     2.661242
      pz      :     0.825925  p :     2.720707
      px      :     0.938670
      py      :     0.956112
      dz2     :     0.064054  d :     0.682843
      dxz     :     0.132478
      dyz     :     0.094003
      dx2y2   :     0.198107
      dxy     :     0.194201
      f0      :     0.005614  f :     0.087084
      f+1     :     0.007735
      f-1     :     0.005671
      f+2     :     0.007404
      f-2     :     0.014995
      f+3     :     0.030293
      f-3     :     0.015372

 38 C s       :     2.814319  s :     2.814319
      pz      :     1.068019  p :     3.169866
      px      :     1.060651
      py      :     1.041197
      dz2     :     0.043376  d :     0.250073
      dxz     :     0.019521
      dyz     :     0.071537
      dx2y2   :     0.075982
      dxy     :     0.039657
      f0      :     0.002135  f :     0.024592
      f+1     :     0.003444
      f-1     :     0.003288
      f+2     :     0.002853
      f-2     :     0.003803
      f+3     :     0.003915
      f-3     :     0.005155

 39 C s       :     2.743060  s :     2.743060
      pz      :     0.728011  p :     2.632578
      px      :     0.983878
      py      :     0.920689
      dz2     :     0.055693  d :     0.771103
      dxz     :     0.164068
      dyz     :     0.055714
      dx2y2   :     0.233456
      dxy     :     0.262172
      f0      :     0.007502  f :     0.105098
      f+1     :     0.011271
      f-1     :     0.003939
      f+2     :     0.013299
      f-2     :     0.010459
      f+3     :     0.031090
      f-3     :     0.027537

 40 O s       :     3.395792  s :     3.395792
      pz      :     1.330613  p :     4.441029
      px      :     1.515357
      py      :     1.595058
      dz2     :     0.007591  d :     0.068794
      dxz     :     0.014347
      dyz     :     0.001411
      dx2y2   :     0.022947
      dxy     :     0.022499
      f0      :     0.000481  f :     0.006051
      f+1     :     0.000871
      f-1     :     0.000154
      f+2     :     0.000693
      f-2     :     0.000294
      f+3     :     0.001749
      f-3     :     0.001809

 41 C s       :     2.723889  s :     2.723889
      pz      :     0.982979  p :     2.907029
      px      :     0.955377
      py      :     0.968672
      dz2     :     0.071068  d :     0.432995
      dxz     :     0.105592
      dyz     :     0.082951
      dx2y2   :     0.091384
      dxy     :     0.082000
      f0      :     0.007058  f :     0.045930
      f+1     :     0.006707
      f-1     :     0.005021
      f+2     :     0.006556
      f-2     :     0.005182
      f+3     :     0.006505
      f-3     :     0.008900

 42 C s       :     2.746833  s :     2.746833
      pz      :     1.017202  p :     2.619892
      px      :     0.850256
      py      :     0.752434
      dz2     :     0.250519  d :     0.945286
      dxz     :     0.264303
      dyz     :     0.167481
      dx2y2   :     0.133225
      dxy     :     0.129758
      f0      :     0.042936  f :     0.153838
      f+1     :     0.024607
      f-1     :     0.020093
      f+2     :     0.017936
      f-2     :     0.021631
      f+3     :     0.014687
      f-3     :     0.011948

 43 O s       :     3.391777  s :     3.391777
      pz      :     1.515343  p :     4.444352
      px      :     1.541667
      py      :     1.387343
      dz2     :     0.026270  d :     0.067625
      dxz     :     0.020431
      dyz     :     0.014114
      dx2y2   :     0.003277
      dxy     :     0.003534
      f0      :     0.001871  f :     0.006233
      f+1     :     0.001817
      f-1     :     0.001027
      f+2     :     0.000668
      f-2     :     0.000736
      f+3     :     0.000047
      f-3     :     0.000067

 44 O s       :     3.256308  s :     3.256308
      pz      :     1.497040  p :     4.374143
      px      :     1.356490
      py      :     1.520613
      dz2     :     0.023985  d :     0.110718
      dxz     :     0.030587
      dyz     :     0.013923
      dx2y2   :     0.019524
      dxy     :     0.022699
      f0      :     0.001271  f :     0.006752
      f+1     :     0.001256
      f-1     :     0.000604
      f+2     :     0.000813
      f-2     :     0.001063
      f+3     :     0.000696
      f-3     :     0.001048

 45 C s       :     2.866253  s :     2.866253
      pz      :     0.914631  p :     3.028965
      px      :     1.006439
      py      :     1.107894
      dz2     :     0.080366  d :     0.356782
      dxz     :     0.087703
      dyz     :     0.100224
      dx2y2   :     0.040070
      dxy     :     0.048420
      f0      :     0.012058  f :     0.052167
      f+1     :     0.012303
      f-1     :     0.004999
      f+2     :     0.008239
      f-2     :     0.008395
      f+3     :     0.003133
      f-3     :     0.003040

 46 C s       :     2.799199  s :     2.799199
      pz      :     0.862464  p :     2.917678
      px      :     1.061174
      py      :     0.994039
      dz2     :     0.076408  d :     0.486454
      dxz     :     0.116620
      dyz     :     0.124763
      dx2y2   :     0.080968
      dxy     :     0.087695
      f0      :     0.012800  f :     0.063890
      f+1     :     0.006634
      f-1     :     0.013277
      f+2     :     0.009210
      f-2     :     0.009103
      f+3     :     0.005331
      f-3     :     0.007536

 47 C s       :     2.777969  s :     2.777969
      pz      :     0.948451  p :     2.988561
      px      :     1.010729
      py      :     1.029381
      dz2     :     0.028738  d :     0.375357
      dxz     :     0.021099
      dyz     :     0.065746
      dx2y2   :     0.163245
      dxy     :     0.096529
      f0      :     0.003056  f :     0.040058
      f+1     :     0.003130
      f-1     :     0.004372
      f+2     :     0.003761
      f-2     :     0.005768
      f+3     :     0.008003
      f-3     :     0.011969

 48 C s       :     2.733639  s :     2.733639
      pz      :     0.822610  p :     2.858582
      px      :     1.019311
      py      :     1.016661
      dz2     :     0.052943  d :     0.540907
      dxz     :     0.081634
      dyz     :     0.078058
      dx2y2   :     0.171503
      dxy     :     0.156769
      f0      :     0.004200  f :     0.056441
      f+1     :     0.004607
      f-1     :     0.004602
      f+2     :     0.007589
      f-2     :     0.006804
      f+3     :     0.008389
      f-3     :     0.020250

 49 C s       :     2.815810  s :     2.815810
      pz      :     1.072452  p :     3.168844
      px      :     1.029589
      py      :     1.066804
      dz2     :     0.045541  d :     0.251078
      dxz     :     0.057666
      dyz     :     0.020812
      dx2y2   :     0.048278
      dxy     :     0.078782
      f0      :     0.003980  f :     0.024284
      f+1     :     0.002981
      f-1     :     0.000444
      f+2     :     0.004146
      f-2     :     0.003028
      f+3     :     0.004588
      f-3     :     0.005118

 50 C s       :     2.767664  s :     2.767664
      pz      :     1.011478  p :     3.027637
      px      :     1.018681
      py      :     0.997478
      dz2     :     0.079963  d :     0.390377
      dxz     :     0.073891
      dyz     :     0.101703
      dx2y2   :     0.077917
      dxy     :     0.056903
      f0      :     0.006627  f :     0.037770
      f+1     :     0.006144
      f-1     :     0.006747
      f+2     :     0.004377
      f-2     :     0.004746
      f+3     :     0.004807
      f-3     :     0.004322

 51 C s       :     2.776139  s :     2.776139
      pz      :     0.999298  p :     3.045386
      px      :     1.028488
      py      :     1.017600
      dz2     :     0.082316  d :     0.398792
      dxz     :     0.075239
      dyz     :     0.101897
      dx2y2   :     0.084413
      dxy     :     0.054926
      f0      :     0.006757  f :     0.038209
      f+1     :     0.006571
      f-1     :     0.006688
      f+2     :     0.004073
      f-2     :     0.005089
      f+3     :     0.004350
      f-3     :     0.004682

 52 C s       :     2.774527  s :     2.774527
      pz      :     0.999769  p :     3.035013
      px      :     1.021320
      py      :     1.013925
      dz2     :     0.077639  d :     0.401127
      dxz     :     0.084503
      dyz     :     0.099273
      dx2y2   :     0.078825
      dxy     :     0.060887
      f0      :     0.006672  f :     0.037767
      f+1     :     0.005582
      f-1     :     0.006978
      f+2     :     0.004740
      f-2     :     0.004814
      f+3     :     0.004302
      f-3     :     0.004680

 53 C s       :     2.733541  s :     2.733541
      pz      :     0.989135  p :     2.975544
      px      :     0.997454
      py      :     0.988955
      dz2     :     0.114741  d :     0.527526
      dxz     :     0.111605
      dyz     :     0.095299
      dx2y2   :     0.093178
      dxy     :     0.112703
      f0      :     0.007800  f :     0.052550
      f+1     :     0.010962
      f-1     :     0.006358
      f+2     :     0.005460
      f-2     :     0.007683
      f+3     :     0.006549
      f-3     :     0.007739

 54 C s       :     2.827535  s :     2.827535
      pz      :     1.062244  p :     3.177298
      px      :     1.044096
      py      :     1.070958
      dz2     :     0.080548  d :     0.264543
      dxz     :     0.042118
      dyz     :     0.017435
      dx2y2   :     0.033106
      dxy     :     0.091335
      f0      :     0.003081  f :     0.024250
      f+1     :     0.004444
      f-1     :     0.001221
      f+2     :     0.003944
      f-2     :     0.003988
      f+3     :     0.004596
      f-3     :     0.002976

 55 C s       :     2.774587  s :     2.774587
      pz      :     1.013689  p :     3.035186
      px      :     1.009886
      py      :     1.011611
      dz2     :     0.075274  d :     0.401785
      dxz     :     0.103582
      dyz     :     0.085445
      dx2y2   :     0.072595
      dxy     :     0.064890
      f0      :     0.007234  f :     0.037767
      f+1     :     0.004789
      f-1     :     0.006439
      f+2     :     0.005172
      f-2     :     0.005025
      f+3     :     0.004650
      f-3     :     0.004459

 56 C s       :     2.774063  s :     2.774063
      pz      :     1.016597  p :     3.054335
      px      :     1.019700
      py      :     1.018038
      dz2     :     0.073509  d :     0.401864
      dxz     :     0.104932
      dyz     :     0.082595
      dx2y2   :     0.076152
      dxy     :     0.064676
      f0      :     0.007847  f :     0.038613
      f+1     :     0.005054
      f-1     :     0.006088
      f+2     :     0.004669
      f-2     :     0.005369
      f+3     :     0.004958
      f-3     :     0.004627

 57 C s       :     2.774662  s :     2.774662
      pz      :     1.001563  p :     3.035328
      px      :     1.015370
      py      :     1.018395
      dz2     :     0.071201  d :     0.401823
      dxz     :     0.108177
      dyz     :     0.076758
      dx2y2   :     0.075005
      dxy     :     0.070681
      f0      :     0.007106  f :     0.037764
      f+1     :     0.004536
      f-1     :     0.005880
      f+2     :     0.004958
      f-2     :     0.005580
      f+3     :     0.005182
      f-3     :     0.004523

 58 C s       :     2.733608  s :     2.733608
      pz      :     0.994140  p :     2.975998
      px      :     0.992238
      py      :     0.989620
      dz2     :     0.117821  d :     0.527678
      dxz     :     0.122429
      dyz     :     0.087432
      dx2y2   :     0.094998
      dxy     :     0.104999
      f0      :     0.009471  f :     0.052570
      f+1     :     0.008766
      f-1     :     0.006386
      f+2     :     0.006516
      f-2     :     0.008346
      f+3     :     0.008031
      f-3     :     0.005053

 59 C s       :     2.827520  s :     2.827520
      pz      :     1.055382  p :     3.177376
      px      :     1.051996
      py      :     1.069998
      dz2     :     0.085275  d :     0.264898
      dxz     :     0.044740
      dyz     :     0.023244
      dx2y2   :     0.036649
      dxy     :     0.074988
      f0      :     0.002737  f :     0.024273
      f+1     :     0.005467
      f-1     :     0.002265
      f+2     :     0.004287
      f-2     :     0.003359
      f+3     :     0.003326
      f-3     :     0.002830

 60 C s       :     2.774667  s :     2.774667
      pz      :     1.016368  p :     3.035432
      px      :     1.001375
      py      :     1.017689
      dz2     :     0.073194  d :     0.401987
      dxz     :     0.113234
      dyz     :     0.067554
      dx2y2   :     0.077343
      dxy     :     0.070661
      f0      :     0.006868  f :     0.037746
      f+1     :     0.004696
      f-1     :     0.005044
      f+2     :     0.004311
      f-2     :     0.006746
      f+3     :     0.006262
      f-3     :     0.003818

 61 C s       :     2.774202  s :     2.774202
      pz      :     1.022014  p :     3.054675
      px      :     1.011360
      py      :     1.021300
      dz2     :     0.072142  d :     0.401563
      dxz     :     0.110707
      dyz     :     0.069854
      dx2y2   :     0.079887
      dxy     :     0.068973
      f0      :     0.007513  f :     0.038604
      f+1     :     0.004939
      f-1     :     0.004806
      f+2     :     0.004130
      f-2     :     0.006858
      f+3     :     0.006541
      f-3     :     0.003817

 62 C s       :     2.775556  s :     2.775556
      pz      :     1.007676  p :     3.036957
      px      :     1.007457
      py      :     1.021824
      dz2     :     0.072839  d :     0.402282
      dxz     :     0.110295
      dyz     :     0.061909
      dx2y2   :     0.084597
      dxy     :     0.072641
      f0      :     0.006208  f :     0.037732
      f+1     :     0.005171
      f-1     :     0.004558
      f+2     :     0.003954
      f-2     :     0.007156
      f+3     :     0.006783
      f-3     :     0.003903

 63 C s       :     2.736762  s :     2.736762
      pz      :     1.000017  p :     2.992933
      px      :     0.997808
      py      :     0.995108
      dz2     :     0.119184  d :     0.534902
      dxz     :     0.130811
      dyz     :     0.086570
      dx2y2   :     0.108340
      dxy     :     0.089997
      f0      :     0.010310  f :     0.053324
      f+1     :     0.007695
      f-1     :     0.006520
      f+2     :     0.007740
      f-2     :     0.008541
      f+3     :     0.007429
      f-3     :     0.005090

 64 C s       :     2.830410  s :     2.830410
      pz      :     1.046871  p :     3.178081
      px      :     1.062996
      py      :     1.068213
      dz2     :     0.068481  d :     0.265149
      dxz     :     0.069036
      dyz     :     0.033333
      dx2y2   :     0.046511
      dxy     :     0.047787
      f0      :     0.004201  f :     0.024257
      f+1     :     0.004243
      f-1     :     0.003304
      f+2     :     0.004670
      f-2     :     0.002907
      f+3     :     0.001941
      f-3     :     0.002991

 65 C s       :     2.832020  s :     2.832020
      pz      :     1.069259  p :     3.176117
      px      :     1.039490
      py      :     1.067368
      dz2     :     0.028394  d :     0.266317
      dxz     :     0.090864
      dyz     :     0.029289
      dx2y2   :     0.074894
      dxy     :     0.042876
      f0      :     0.002350  f :     0.024285
      f+1     :     0.004174
      f-1     :     0.002437
      f+2     :     0.002149
      f-2     :     0.003827
      f+3     :     0.005819
      f-3     :     0.003528

 66 H s       :     0.769621  s :     0.769621
      pz      :     0.018844  p :     0.062617
      px      :     0.013439
      py      :     0.030334

 67 H s       :     0.763386  s :     0.763386
      pz      :     0.015067  p :     0.067962
      px      :     0.039553
      py      :     0.013342

 68 H s       :     0.769896  s :     0.769896
      pz      :     0.018172  p :     0.061413
      px      :     0.012927
      py      :     0.030314

 69 H s       :     0.767686  s :     0.767686
      pz      :     0.023128  p :     0.059636
      px      :     0.023756
      py      :     0.012752

 70 H s       :     0.773404  s :     0.773404
      pz      :     0.015200  p :     0.058818
      px      :     0.013760
      py      :     0.029858

 71 H s       :     0.810830  s :     0.810830
      pz      :     0.015747  p :     0.062702
      px      :     0.032136
      py      :     0.014819

 72 H s       :     0.805991  s :     0.805991
      pz      :     0.015439  p :     0.062486
      px      :     0.015202
      py      :     0.031845

 73 H s       :     0.809211  s :     0.809211
      pz      :     0.014608  p :     0.062357
      px      :     0.023649
      py      :     0.024100

 74 H s       :     0.789167  s :     0.789167
      pz      :     0.014434  p :     0.060040
      px      :     0.013305
      py      :     0.032301

 75 H s       :     0.791009  s :     0.791009
      pz      :     0.015259  p :     0.061955
      px      :     0.031141
      py      :     0.015555

 76 H s       :     0.767813  s :     0.767813
      pz      :     0.014816  p :     0.062298
      px      :     0.013866
      py      :     0.033616

 77 H s       :     0.781848  s :     0.781848
      pz      :     0.013505  p :     0.061945
      px      :     0.031593
      py      :     0.016848

 78 H s       :     0.797783  s :     0.797783
      pz      :     0.022350  p :     0.063280
      px      :     0.026197
      py      :     0.014732

 79 H s       :     0.796344  s :     0.796344
      pz      :     0.032846  p :     0.062865
      px      :     0.017081
      py      :     0.012937

 80 H s       :     0.801845  s :     0.801845
      pz      :     0.013830  p :     0.063686
      px      :     0.025552
      py      :     0.024304

 81 H s       :     0.803754  s :     0.803754
      pz      :     0.012791  p :     0.062897
      px      :     0.031426
      py      :     0.018680

 82 H s       :     0.797106  s :     0.797106
      pz      :     0.033692  p :     0.063842
      px      :     0.015602
      py      :     0.014548

 83 H s       :     0.792008  s :     0.792008
      pz      :     0.018662  p :     0.064263
      px      :     0.013750
      py      :     0.031851

 84 H s       :     0.773621  s :     0.773621
      pz      :     0.022800  p :     0.058966
      px      :     0.023542
      py      :     0.012624

 85 H s       :     0.772719  s :     0.772719
      pz      :     0.016055  p :     0.058670
      px      :     0.013510
      py      :     0.029105

 86 H s       :     0.810222  s :     0.810222
      pz      :     0.014583  p :     0.062271
      px      :     0.014209
      py      :     0.033480

 87 H s       :     0.807674  s :     0.807674
      pz      :     0.024157  p :     0.062238
      px      :     0.024893
      py      :     0.013187

 88 H s       :     0.810603  s :     0.810603
      pz      :     0.016590  p :     0.062805
      px      :     0.029242
      py      :     0.016973

 89 H s       :     0.798475  s :     0.798475
      pz      :     0.014254  p :     0.059976
      px      :     0.030182
      py      :     0.015539

 90 H s       :     0.797794  s :     0.797794
      pz      :     0.013731  p :     0.059662
      px      :     0.023678
      py      :     0.022254

 91 H s       :     0.813896  s :     0.813896
      pz      :     0.034539  p :     0.062351
      px      :     0.013867
      py      :     0.013945

 92 H s       :     0.813226  s :     0.813226
      pz      :     0.015050  p :     0.062982
      px      :     0.031507
      py      :     0.016426

 93 H s       :     0.810894  s :     0.810894
      pz      :     0.014838  p :     0.063057
      px      :     0.024818
      py      :     0.023400

 94 H s       :     0.800143  s :     0.800143
      pz      :     0.013598  p :     0.062697
      px      :     0.035201
      py      :     0.013898

 95 H s       :     0.797097  s :     0.797097
      pz      :     0.023157  p :     0.062212
      px      :     0.013715
      py      :     0.025339

 96 H s       :     0.798577  s :     0.798577
      pz      :     0.031741  p :     0.062233
      px      :     0.015748
      py      :     0.014744

 97 H s       :     0.755380  s :     0.755380
      pz      :     0.023996  p :     0.061676
      px      :     0.014341
      py      :     0.023338

 98 H s       :     0.815864  s :     0.815864
      pz      :     0.012944  p :     0.062966
      px      :     0.031559
      py      :     0.018463

 99 H s       :     0.818957  s :     0.818957
      pz      :     0.021498  p :     0.063680
      px      :     0.017995
      py      :     0.024187

100 H s       :     0.817748  s :     0.817748
      pz      :     0.017476  p :     0.063748
      px      :     0.013089
      py      :     0.033183

101 H s       :     0.799863  s :     0.799863
      pz      :     0.016279  p :     0.061434
      px      :     0.026529
      py      :     0.018626

102 H s       :     0.798730  s :     0.798730
      pz      :     0.017662  p :     0.060656
      px      :     0.030907
      py      :     0.012088

103 H s       :     0.789513  s :     0.789513
      pz      :     0.015235  p :     0.061823
      px      :     0.035213
      py      :     0.011375

104 H s       :     0.802145  s :     0.802145
      pz      :     0.018809  p :     0.061998
      px      :     0.015814
      py      :     0.027375

105 H s       :     0.806726  s :     0.806726
      pz      :     0.016952  p :     0.063424
      px      :     0.016061
      py      :     0.030411

106 H s       :     0.799721  s :     0.799721
      pz      :     0.034684  p :     0.062837
      px      :     0.014075
      py      :     0.014078

107 H s       :     0.793382  s :     0.793382
      pz      :     0.014759  p :     0.059282
      px      :     0.032415
      py      :     0.012108

108 H s       :     0.793232  s :     0.793232
      pz      :     0.017561  p :     0.059312
      px      :     0.017349
      py      :     0.024402

109 H s       :     0.801046  s :     0.801046
      pz      :     0.015389  p :     0.061062
      px      :     0.032230
      py      :     0.013443

110 H s       :     0.799991  s :     0.799991
      pz      :     0.017320  p :     0.059668
      px      :     0.017343
      py      :     0.025006

111 H s       :     0.798809  s :     0.798809
      pz      :     0.016058  p :     0.059474
      px      :     0.030430
      py      :     0.012986

112 H s       :     0.800139  s :     0.800139
      pz      :     0.016642  p :     0.059410
      px      :     0.017765
      py      :     0.025003

113 H s       :     0.789829  s :     0.789829
      pz      :     0.016021  p :     0.057178
      px      :     0.016023
      py      :     0.025134

114 H s       :     0.815301  s :     0.815301
      pz      :     0.034844  p :     0.063234
      px      :     0.013880
      py      :     0.014509

115 H s       :     0.813536  s :     0.813536
      pz      :     0.016907  p :     0.061823
      px      :     0.017348
      py      :     0.027568

116 H s       :     0.815489  s :     0.815489
      pz      :     0.014522  p :     0.063159
      px      :     0.020964
      py      :     0.027673

117 H s       :     0.800041  s :     0.800041
      pz      :     0.018930  p :     0.059410
      px      :     0.027003
      py      :     0.013477

118 H s       :     0.800919  s :     0.800919
      pz      :     0.015395  p :     0.059353
      px      :     0.016856
      py      :     0.027102

119 H s       :     0.803234  s :     0.803234
      pz      :     0.019655  p :     0.061200
      px      :     0.027150
      py      :     0.014395

120 H s       :     0.802195  s :     0.802195
      pz      :     0.015494  p :     0.059227
      px      :     0.016417
      py      :     0.027316

121 H s       :     0.800303  s :     0.800303
      pz      :     0.020279  p :     0.059397
      px      :     0.025232
      py      :     0.013885

122 H s       :     0.801075  s :     0.801075
      pz      :     0.014986  p :     0.059351
      px      :     0.016625
      py      :     0.027740

123 H s       :     0.790425  s :     0.790425
      pz      :     0.014811  p :     0.057127
      px      :     0.014794
      py      :     0.027522

124 H s       :     0.815489  s :     0.815489
      pz      :     0.032291  p :     0.063206
      px      :     0.016803
      py      :     0.014112

125 H s       :     0.813766  s :     0.813766
      pz      :     0.015333  p :     0.061800
      px      :     0.016070
      py      :     0.030396

126 H s       :     0.815679  s :     0.815679
      pz      :     0.013924  p :     0.063191
      px      :     0.025875
      py      :     0.023393

127 H s       :     0.800305  s :     0.800305
      pz      :     0.023134  p :     0.059379
      px      :     0.021208
      py      :     0.015037

128 H s       :     0.801073  s :     0.801073
      pz      :     0.014539  p :     0.059345
      px      :     0.015066
      py      :     0.029740

129 H s       :     0.802888  s :     0.802888
      pz      :     0.023542  p :     0.061091
      px      :     0.021177
      py      :     0.016372

130 H s       :     0.802210  s :     0.802210
      pz      :     0.014852  p :     0.059223
      px      :     0.014554
      py      :     0.029817

131 H s       :     0.800174  s :     0.800174
      pz      :     0.024386  p :     0.059340
      px      :     0.019271
      py      :     0.015682

132 H s       :     0.801268  s :     0.801268
      pz      :     0.014359  p :     0.059295
      px      :     0.014626
      py      :     0.030310

133 H s       :     0.792266  s :     0.792266
      pz      :     0.014141  p :     0.057191
      px      :     0.013796
      py      :     0.029254

134 H s       :     0.815125  s :     0.815125
      pz      :     0.027047  p :     0.062115
      px      :     0.021366
      py      :     0.013702

135 H s       :     0.814662  s :     0.814662
      pz      :     0.014472  p :     0.061835
      px      :     0.015237
      py      :     0.032126

136 H s       :     0.816224  s :     0.816224
      pz      :     0.014785  p :     0.063022
      px      :     0.028343
      py      :     0.019893

137 H s       :     0.816026  s :     0.816026
      pz      :     0.028063  p :     0.062081
      px      :     0.020406
      py      :     0.013612

138 H s       :     0.816151  s :     0.816151
      pz      :     0.025803  p :     0.062026
      px      :     0.018554
      py      :     0.017669

139 H s       :     0.815345  s :     0.815345
      pz      :     0.015189  p :     0.061917
      px      :     0.014068
      py      :     0.032661



                      *****************************
                      * MAYER POPULATION ANALYSIS *
                      *****************************

  NA   - Mulliken gross atomic population
  ZA   - Total nuclear charge
  QA   - Mulliken gross atomic charge
  VA   - Mayer's total valence
  BVA  - Mayer's bonded valence
  FA   - Mayer's free valence

  ATOM       NA         ZA         QA         VA         BVA        FA
  0 Mg    11.2686    12.0000     0.7314     2.0030     2.0030    -0.0000
  1 C      6.2454     6.0000    -0.2454     3.7766     3.7766    -0.0000
  2 C      6.5863     6.0000    -0.5863     3.9644     3.9644    -0.0000
  3 C      6.5481     6.0000    -0.5481     3.9156     3.9156     0.0000
  4 C      6.5325     6.0000    -0.5325     3.8659     3.8659    -0.0000
  5 N      7.3427     7.0000    -0.3427     3.0297     3.0297    -0.0000
  6 C      5.9137     6.0000     0.0863     3.6330     3.6330    -0.0000
  7 C      5.8092     6.0000     0.1908     3.8605     3.8605    -0.0000
  8 C      5.9808     6.0000     0.0192     3.9615     3.9615    -0.0000
  9 C      5.7986     6.0000     0.2014     3.9814     3.9814    -0.0000
 10 C      6.4592     6.0000    -0.4592     3.9390     3.9390    -0.0000
 11 C      6.3407     6.0000    -0.3407     4.1056     4.1056    -0.0000
 12 C      6.2049     6.0000    -0.2049     3.8816     3.8816    -0.0000
 13 C      5.7017     6.0000     0.2983     4.3470     4.3470    -0.0000
 14 O      8.4000     8.0000    -0.4000     2.1125     2.1125    -0.0000
 15 O      8.2401     8.0000    -0.2401     2.1412     2.1412     0.0000
 16 N      7.3259     7.0000    -0.3259     3.0875     3.0875     0.0000
 17 C      5.6422     6.0000     0.3578     3.6110     3.6110     0.0000
 18 C      6.0538     6.0000    -0.0538     3.7686     3.7686    -0.0000
 19 C      6.0791     6.0000    -0.0791     3.5683     3.5683     0.0000
 20 C      5.7271     6.0000     0.2729     3.7765     3.7765     0.0000
 21 C      6.3940     6.0000    -0.3940     3.9057     3.9057    -0.0000
 22 C      5.8010     6.0000     0.1990     4.0848     4.0848    -0.0000
 23 O      8.3989     8.0000    -0.3989     2.0669     2.0669     0.0000
 24 C      6.3626     6.0000    -0.3626     3.8512     3.8512    -0.0000
 25 N      7.2989     7.0000    -0.2989     3.0475     3.0475    -0.0000
 26 C      5.7375     6.0000     0.2625     3.8140     3.8140    -0.0000
 27 C      6.0029     6.0000    -0.0029     3.9866     3.9866    -0.0000
 28 C      5.8880     6.0000     0.1120     3.8963     3.8963    -0.0000
 29 C      5.8372     6.0000     0.1628     3.8620     3.8620    -0.0000
 30 C      6.4575     6.0000    -0.4575     3.9483     3.9483    -0.0000
 31 C      6.2331     6.0000    -0.2331     3.9950     3.9950    -0.0000
 32 C      6.4256     6.0000    -0.4256     3.9498     3.9498    -0.0000
 33 N      7.3488     7.0000    -0.3488     3.0521     3.0521     0.0000
 34 C      5.6797     6.0000     0.3203     3.7203     3.7203    -0.0000
 35 C      6.1439     6.0000    -0.1439     3.8123     3.8123     0.0000
 36 C      6.0032     6.0000    -0.0032     3.3230     3.3230    -0.0000
 37 C      5.7404     6.0000     0.2596     3.6892     3.6892     0.0000
 38 C      6.4443     6.0000    -0.4443     3.8495     3.8495     0.0000
 39 C      5.9284     6.0000     0.0716     4.4022     4.4022    -0.0000
 40 O      8.3518     8.0000    -0.3518     2.1745     2.1745    -0.0000
 41 C      5.8730     6.0000     0.1270     3.4650     3.4650    -0.0000
 42 C      5.7456     6.0000     0.2544     4.3695     4.3695     0.0000
 43 O      8.3843     8.0000    -0.3843     2.1330     2.1330    -0.0000
 44 O      8.2324     8.0000    -0.2324     2.1637     2.1637    -0.0000
 45 C      6.2612     6.0000    -0.2612     3.8667     3.8667     0.0000
 46 C      6.0522     6.0000    -0.0522     3.9075     3.9075    -0.0000
 47 C      6.2600     6.0000    -0.2600     3.8960     3.8960    -0.0000
 48 C      5.9503     6.0000     0.0497     3.8619     3.8619     0.0000
 49 C      6.4060     6.0000    -0.4060     3.9111     3.9111    -0.0000
 50 C      6.1711     6.0000    -0.1711     3.9014     3.9014    -0.0000
 51 C      6.2971     6.0000    -0.2971     3.9946     3.9946    -0.0000
 52 C      6.2100     6.0000    -0.2100     3.9624     3.9624    -0.0000
 53 C      5.9459     6.0000     0.0541     3.8916     3.8916    -0.0000
 54 C      6.4562     6.0000    -0.4562     3.9297     3.9297    -0.0000
 55 C      6.2096     6.0000    -0.2096     3.9850     3.9850    -0.0000
 56 C      6.2587     6.0000    -0.2587     4.0259     4.0259    -0.0000
 57 C      6.2090     6.0000    -0.2090     3.9864     3.9864     0.0000
 58 C      5.9429     6.0000     0.0571     3.8900     3.8900     0.0000
 59 C      6.4563     6.0000    -0.4563     3.9301     3.9301    -0.0000
 60 C      6.2097     6.0000    -0.2097     3.9819     3.9819    -0.0000
 61 C      6.2578     6.0000    -0.2578     4.0155     4.0155    -0.0000
 62 C      6.2197     6.0000    -0.2197     3.9475     3.9475    -0.0000
 63 C      5.9685     6.0000     0.0315     3.8847     3.8847    -0.0000
 64 C      6.4328     6.0000    -0.4328     3.9157     3.9157    -0.0000
 65 C      6.3970     6.0000    -0.3970     3.9055     3.9055    -0.0000
 66 H      0.8627     1.0000     0.1373     0.9764     0.9764     0.0000
 67 H      0.8369     1.0000     0.1631     0.9983     0.9983     0.0000
 68 H      0.8412     1.0000     0.1588     0.9609     0.9609    -0.0000
 69 H      0.8866     1.0000     0.1134     0.9746     0.9746    -0.0000
 70 H      0.8811     1.0000     0.1189     0.9623     0.9623    -0.0000
 71 H      0.8601     1.0000     0.1399     0.9724     0.9724    -0.0000
 72 H      0.8575     1.0000     0.1425     0.9699     0.9699     0.0000
 73 H      0.8597     1.0000     0.1403     0.9686     0.9686    -0.0000
 74 H      0.8673     1.0000     0.1327     0.9718     0.9718     0.0000
 75 H      0.8596     1.0000     0.1404     0.9873     0.9873     0.0000
 76 H      0.8513     1.0000     0.1487     0.9812     0.9812    -0.0000
 77 H      0.8551     1.0000     0.1449     0.9841     0.9841    -0.0000
 78 H      0.8452     1.0000     0.1548     0.9599     0.9599     0.0000
 79 H      0.8397     1.0000     0.1603     0.9541     0.9541    -0.0000
 80 H      0.8438     1.0000     0.1562     0.9719     0.9719    -0.0000
 81 H      0.8503     1.0000     0.1497     0.9879     0.9879     0.0000
 82 H      0.8520     1.0000     0.1480     0.9720     0.9720    -0.0000
 83 H      0.8495     1.0000     0.1505     0.9720     0.9720     0.0000
 84 H      0.8828     1.0000     0.1172     0.9629     0.9629     0.0000
 85 H      0.8975     1.0000     0.1025     0.9675     0.9675    -0.0000
 86 H      0.8609     1.0000     0.1391     0.9682     0.9682    -0.0000
 87 H      0.8617     1.0000     0.1383     0.9681     0.9681     0.0000
 88 H      0.8592     1.0000     0.1408     0.9733     0.9733     0.0000
 89 H      0.8837     1.0000     0.1163     0.9734     0.9734    -0.0000
 90 H      0.8814     1.0000     0.1186     0.9672     0.9672    -0.0000
 91 H      0.8591     1.0000     0.1409     0.9628     0.9628     0.0000
 92 H      0.8653     1.0000     0.1347     0.9687     0.9687    -0.0000
 93 H      0.8670     1.0000     0.1330     0.9733     0.9733     0.0000
 94 H      0.8444     1.0000     0.1556     0.9789     0.9789    -0.0000
 95 H      0.8443     1.0000     0.1557     0.9569     0.9569     0.0000
 96 H      0.8467     1.0000     0.1533     0.9582     0.9582    -0.0000
 97 H      0.8697     1.0000     0.1303     0.9969     0.9969     0.0000
 98 H      0.8394     1.0000     0.1606     0.9640     0.9640     0.0000
 99 H      0.8491     1.0000     0.1509     0.9648     0.9648     0.0000
100 H      0.8469     1.0000     0.1531     0.9658     0.9658     0.0000
101 H      0.8621     1.0000     0.1379     0.9850     0.9850     0.0000
102 H      0.8388     1.0000     0.1612     0.9543     0.9543     0.0000
103 H      0.8617     1.0000     0.1383     0.9760     0.9760    -0.0000
104 H      0.8590     1.0000     0.1410     0.9646     0.9646    -0.0000
105 H      0.8609     1.0000     0.1391     0.9768     0.9768    -0.0000
106 H      0.8482     1.0000     0.1518     0.9623     0.9623    -0.0000
107 H      0.8792     1.0000     0.1208     0.9795     0.9795    -0.0000
108 H      0.8829     1.0000     0.1171     0.9721     0.9721    -0.0000
109 H      0.8756     1.0000     0.1244     0.9674     0.9674     0.0000
110 H      0.8899     1.0000     0.1101     0.9760     0.9760    -0.0000
111 H      0.8931     1.0000     0.1069     0.9762     0.9762     0.0000
112 H      0.8986     1.0000     0.1014     0.9792     0.9792     0.0000
113 H      0.9328     1.0000     0.0672     0.9751     0.9751    -0.0000
114 H      0.8617     1.0000     0.1383     0.9665     0.9665    -0.0000
115 H      0.8815     1.0000     0.1185     0.9759     0.9759     0.0000
116 H      0.8631     1.0000     0.1369     0.9663     0.9663    -0.0000
117 H      0.8956     1.0000     0.1044     0.9758     0.9758    -0.0000
118 H      0.9007     1.0000     0.0993     0.9787     0.9787    -0.0000
119 H      0.8867     1.0000     0.1133     0.9722     0.9722     0.0000
120 H      0.9018     1.0000     0.0982     0.9734     0.9734     0.0000
121 H      0.8962     1.0000     0.1038     0.9757     0.9757    -0.0000
122 H      0.9013     1.0000     0.0987     0.9789     0.9789     0.0000
123 H      0.9347     1.0000     0.0653     0.9753     0.9753     0.0000
124 H      0.8622     1.0000     0.1378     0.9662     0.9662    -0.0000
125 H      0.8823     1.0000     0.1177     0.9761     0.9761    -0.0000
126 H      0.8627     1.0000     0.1373     0.9663     0.9663    -0.0000
127 H      0.8962     1.0000     0.1038     0.9755     0.9755     0.0000
128 H      0.9012     1.0000     0.0988     0.9786     0.9786    -0.0000
129 H      0.8838     1.0000     0.1162     0.9696     0.9696    -0.0000
130 H      0.9029     1.0000     0.0971     0.9732     0.9732    -0.0000
131 H      0.8955     1.0000     0.1045     0.9739     0.9739     0.0000
132 H      0.9003     1.0000     0.0997     0.9799     0.9799     0.0000
133 H      0.9277     1.0000     0.0723     0.9689     0.9689    -0.0000
134 H      0.8689     1.0000     0.1311     0.9687     0.9687    -0.0000
135 H      0.8814     1.0000     0.1186     0.9771     0.9771     0.0000
136 H      0.8630     1.0000     0.1370     0.9664     0.9664    -0.0000
137 H      0.8685     1.0000     0.1315     0.9691     0.9691    -0.0000
138 H      0.8712     1.0000     0.1288     0.9713     0.9713    -0.0000
139 H      0.8817     1.0000     0.1183     0.9773     0.9773    -0.0000

  Mayer bond orders larger than 0.100000
B(  0-Mg,  5-N ) :   0.4320 B(  0-Mg, 16-N ) :   0.5789 B(  0-Mg, 25-N ) :   0.4408 
B(  0-Mg, 33-N ) :   0.5882 B(  1-C ,  6-C ) :   1.2571 B(  1-C , 37-C ) :   1.1783 
B(  1-C , 41-C ) :   0.9496 B(  2-C ,  9-C ) :   1.4418 B(  2-C , 17-C ) :   1.1776 
B(  2-C , 66-H ) :   0.9647 B(  3-C , 20-C ) :   1.3050 B(  3-C , 26-C ) :   1.3482 
B(  3-C , 67-H ) :   0.9518 B(  4-C , 29-C ) :   1.3818 B(  4-C , 34-C ) :   1.2135 
B(  4-C , 68-H ) :   0.9923 B(  5-N ,  6-C ) :   1.1371 B(  5-N ,  9-C ) :   1.2504 
B(  6-C ,  7-C ) :   1.0564 B(  7-C ,  8-C ) :   0.9534 B(  7-C , 11-C ) :   0.8754 
B(  7-C , 69-H ) :   0.9235 B(  8-C ,  9-C ) :   1.0137 B(  8-C , 10-C ) :   0.8750 
B(  8-C , 11-C ) :   0.1011 B(  8-C , 70-H ) :   0.9398 B( 10-C , 71-H ) :   0.9663 
B( 10-C , 72-H ) :   0.9717 B( 10-C , 73-H ) :   0.9673 B( 11-C , 12-C ) :   1.0483 
B( 11-C , 74-H ) :   0.9424 B( 11-C , 75-H ) :   0.9520 B( 12-C , 13-C ) :   1.0175 
B( 12-C , 76-H ) :   0.9009 B( 12-C , 77-H ) :   0.9331 B( 13-C , 14-O ) :   1.9592 
B( 13-C , 15-O ) :   1.2438 B( 15-O , 46-C ) :   0.8694 B( 16-N , 17-C ) :   1.1941 
B( 16-N , 20-C ) :   1.2194 B( 17-C , 18-C ) :   1.2329 B( 18-C , 19-C ) :   1.4644 
B( 18-C , 21-C ) :   0.9391 B( 19-C , 20-C ) :   1.1794 B( 19-C , 22-C ) :   0.9711 
B( 21-C , 78-H ) :   0.9768 B( 21-C , 79-H ) :   0.9568 B( 21-C , 80-H ) :   0.9604 
B( 22-C , 23-O ) :   1.9687 B( 22-C , 24-C ) :   1.0646 B( 24-C , 81-H ) :   0.9563 
B( 24-C , 82-H ) :   0.9496 B( 24-C , 83-H ) :   0.9303 B( 25-N , 26-C ) :   1.2526 
B( 25-N , 29-C ) :   1.2083 B( 26-C , 27-C ) :   1.0144 B( 27-C , 28-C ) :   0.9667 
B( 27-C , 30-C ) :   0.8891 B( 27-C , 84-H ) :   0.9401 B( 28-C , 29-C ) :   1.0068 
B( 28-C , 31-C ) :   0.9137 B( 28-C , 85-H ) :   0.9279 B( 30-C , 86-H ) :   0.9672 
B( 30-C , 87-H ) :   0.9704 B( 30-C , 88-H ) :   0.9691 B( 31-C , 32-C ) :   1.0186 
B( 31-C , 89-H ) :   0.9525 B( 31-C , 90-H ) :   0.9512 B( 32-C , 91-H ) :   0.9636 
B( 32-C , 92-H ) :   0.9667 B( 32-C , 93-H ) :   0.9659 B( 33-N , 34-C ) :   1.1408 
B( 33-N , 37-C ) :   1.2442 B( 34-C , 35-C ) :   1.2716 B( 35-C , 36-C ) :   1.4001 
B( 35-C , 38-C ) :   0.9302 B( 36-C , 37-C ) :   1.1959 B( 36-C , 39-C ) :   0.9434 
B( 36-C , 40-O ) :  -0.1260 B( 38-C , 94-H ) :   0.9899 B( 38-C , 95-H ) :   0.9642 
B( 38-C , 96-H ) :   0.9677 B( 39-C , 40-O ) :   2.2120 B( 39-C , 41-C ) :   0.9307 
B( 41-C , 42-C ) :   0.9270 B( 41-C , 97-H ) :   0.8894 B( 42-C , 43-O ) :   2.0017 
B( 42-C , 44-O ) :   1.2328 B( 44-O , 45-C ) :   0.8961 B( 45-C , 98-H ) :   0.9635 
B( 45-C , 99-H ) :   0.9675 B( 45-C ,100-H ) :   0.9678 B( 46-C , 47-C ) :   0.9933 
B( 46-C ,101-H ) :   0.9600 B( 46-C ,102-H ) :   0.9574 B( 47-C , 48-C ) :   1.8708 
B( 47-C ,103-H ) :   0.9498 B( 48-C , 49-C ) :   0.9850 B( 48-C , 50-C ) :   0.9573 
B( 49-C ,104-H ) :   0.9559 B( 49-C ,105-H ) :   0.9682 B( 49-C ,106-H ) :   0.9520 
B( 50-C , 51-C ) :   0.9960 B( 50-C ,107-H ) :   0.9581 B( 50-C ,108-H ) :   0.9519 
B( 51-C , 52-C ) :   1.0176 B( 51-C ,109-H ) :   0.9670 B( 51-C ,110-H ) :   0.9535 
B( 52-C , 53-C ) :   1.0056 B( 52-C ,111-H ) :   0.9570 B( 52-C ,112-H ) :   0.9452 
B( 53-C , 54-C ) :   0.9393 B( 53-C , 55-C ) :   1.0088 B( 53-C ,113-H ) :   0.9445 
B( 54-C ,114-H ) :   0.9736 B( 54-C ,115-H ) :   0.9643 B( 54-C ,116-H ) :   0.9733 
B( 55-C , 56-C ) :   1.0342 B( 55-C ,117-H ) :   0.9579 B( 55-C ,118-H ) :   0.9462 
B( 56-C , 57-C ) :   1.0350 B( 56-C ,119-H ) :   0.9618 B( 56-C ,120-H ) :   0.9474 
B( 57-C , 58-C ) :   1.0092 B( 57-C ,121-H ) :   0.9581 B( 57-C ,122-H ) :   0.9455 
B( 58-C , 59-C ) :   0.9376 B( 58-C , 60-C ) :   1.0089 B( 58-C ,123-H ) :   0.9440 
B( 59-C ,124-H ) :   0.9734 B( 59-C ,125-H ) :   0.9644 B( 59-C ,126-H ) :   0.9735 
B( 60-C , 61-C ) :   1.0312 B( 60-C ,127-H ) :   0.9586 B( 60-C ,128-H ) :   0.9457 
B( 61-C , 62-C ) :   1.0233 B( 61-C ,129-H ) :   0.9647 B( 61-C ,130-H ) :   0.9460 
B( 62-C , 63-C ) :   0.9983 B( 62-C ,131-H ) :   0.9567 B( 62-C ,132-H ) :   0.9547 
B( 63-C , 64-C ) :   0.9737 B( 63-C , 65-C ) :   0.9810 B( 63-C ,133-H ) :   0.9491 
B( 64-C ,134-H ) :   0.9701 B( 64-C ,135-H ) :   0.9656 B( 64-C ,136-H ) :   0.9734 
B( 65-C ,137-H ) :   0.9739 B( 65-C ,138-H ) :   0.9720 B( 65-C ,139-H ) :   0.9664 


-------
TIMINGS
-------

Total SCF time: 0 days 1 hours 30 min 33 sec 

Total time                  ....    5433.982 sec
Sum of individual times     ....    5256.337 sec  ( 96.7%)

SCF preparation             ....      20.257 sec  (  0.4%)
Fock matrix formation       ....    5122.777 sec  ( 94.3%)
  Startup                   ....       0.695 sec  (  0.0% of F)
  Split-RI-J                ....     380.245 sec  (  7.4% of F)
  Chain of spheres X        ....    4145.724 sec  ( 80.9% of F)
  XC integration            ....     315.368 sec  (  6.2% of F)
    XC Preparation          ....       0.000 sec  (  0.0% of XC)
    Basis function eval.    ....      92.900 sec  ( 29.5% of XC)
    Density eval.           ....     114.046 sec  ( 36.2% of XC)
    XC-Functional eval.     ....       4.161 sec  (  1.3% of XC)
    XC-Potential eval.      ....      86.570 sec  ( 27.5% of XC)
  CPCM terms                ....     463.456 sec  (  9.0% of F)
Diagonalization             ....       0.000 sec  (  0.0%)
Density matrix formation    ....       7.032 sec  (  0.1%)
Total Energy calculation    ....       3.158 sec  (  0.1%)
Population analysis         ....       3.826 sec  (  0.1%)
Orbital Transformation      ....      13.432 sec  (  0.2%)
Orbital Orthonormalization  ....       0.000 sec  (  0.0%)
DIIS solution               ....      44.443 sec  (  0.8%)
SOSCF solution              ....      33.426 sec  (  0.6%)
Finished LeanSCF after 5445.6 sec

Maximum memory used throughout the entire LEANSCF-calculation: 703.7 MB


           ************************************************************
           *        Program running with 4 parallel MPI-processes     *
           *              working on a common directory               *
           ************************************************************

------------------------------------------------------------------------------
                         ORCA PROPERTY INTEGRAL CALCULATIONS
------------------------------------------------------------------------------

GBWName                                   ... tddft.gbw
Number of atoms                           ...    140
Number of basis functions                 ...   2491
Max core memory                           ...   2200 MB

Dipole integrals                          ... YES
Quadrupole integrals                      ...  NO
Linear momentum integrals                 ... YES
Angular momentum integrals                ... YES
Higher moments length integrals           ...  NO
Higher moments velocity integrals         ...  NO
Kinetic energy integrals                  ...  NO
GIAO right hand sides                     ...  NO
GIAO dipole derivative integrals          ...  NO
SOC integrals                             ...  NO
EPR diamagnetic integrals (GIAO)          ...  NO
EPR gauge integrals                       ...  NO
Field gradient integrals                  ...  NO (   0 nuclei)
Spin-dipole/Fermi contact integrals       ...  NO (   0 nuclei)
Contact density integrals                 ...  NO (   0 nuclei)
Nucleus-orbit integrals                   ...  NO (   0 nuclei)
Geometric perturbations                   ...  NO ( 140 nuclei)

Choice of electric origin   ... Center of mass
Position of electric origin ... ( 74.6342, 99.1885, 41.9481) 
Choice of magnetic origin   ... GIAO
Position of magnetic origin ... (  0.0000,  0.0000,  0.0000) 

Calculating integrals                     ... Electric Dipole (Length)     done (  0.5 sec)
Calculating integrals                     ... Linear Momentum              done (  1.0 sec)
Calculating integrals                     ... Angular Momentum  (ElOri)    done (  1.0 sec)

Property integrals calculated in   2.7 sec

Maximum memory used throughout the entire PROPINT-calculation: 507.9 MB


           ************************************************************
           *        Program running with 4 parallel MPI-processes     *
           *              working on a common directory               *
           ************************************************************
------------------------------------------------------------------------------
                          ORCA TD-DFT CALCULATION
------------------------------------------------------------------------------

Input orbitals are from        ... tddft.gbw
CI-vector output               ... tddft.cis
Solver                         ... FN-2001
Tamm-Dancoff approximation     ... deactivated
RPA-Integral strategy          ... AO-integrals
Integral handling              ... AO integral Direct
Max. core memory used          ... 2200 MB
Reference state                ... RHF
Generation of triplets         ... off
Follow IRoot                   ... off
Number of operators            ... 1
Orbital ranges used for CIS calculation:
 Operator 0:  Orbitals  66...245  to 246...2490
XAS localization array:
 Operator 0:  Orbitals  -1... -1

-------------------
XC-INTEGRATION GRID
-------------------

General Integration Accuracy     IntAcc      ... 3.467
Radial Grid Type                 RadialGrid  ... OptM3 with GC (2021)
Angular Grid (max. ang.)         AngularGrid ... 3 (Lebedev-194)
Angular grid pruning method      GridPruning ... 4 (adaptive)
Weight generation scheme         WeightScheme... mBecke (2022)
Basis function cutoff            BFCut       ... 1.0000e-11
Integration weight cutoff        WCut        ... 1.0000e-14
Partially contracted basis set               ... off
Rotationally invariant grid construction     ... off
Angular grids for H and He will be reduced by one unit

Total number of grid points                  ...   233979
Total number of batches                      ...     3734
Average number of points per batch           ...       62
Average number of grid points per atom       ...     1671

---------------------
COSX-INTEGRATION GRID
---------------------

General Integration Accuracy     IntAcc      ... 3.067
Radial Grid Type                 RadialGrid  ... OptM3 with GC (2021)
Angular Grid (max. ang.)         AngularGrid ... 2 (Lebedev-110)
Angular grid pruning method      GridPruning ... 4 (adaptive)
Weight generation scheme         WeightScheme... mBecke (2022)
Basis function cutoff            BFCut       ... 1.0000e-11
Integration weight cutoff        WCut        ... 1.0000e-14
Partially contracted basis set               ... on
Rotationally invariant grid construction     ... off
Angular grids for H and He will be reduced by one unit

Total number of grid points                  ...    91933
Total number of batches                      ...      797
Average number of points per batch           ...      115
Average number of grid points per atom       ...      657

---------------
TD-DFT XC SETUP
---------------

DFT calculation                         ... on
Name of the grid file                   ... tddft.grid_cis.tmp
RI-approximation                        ... on
Aux-basis dimension                     ... 0
Exchange functional (TD-DFT)            ... PBE
   PBE kappa parameter  XKappa (TD-DFT) ...  0.804000
   PBE mue parameter   XMuePBE (TD-DFT) ...  0.219520
Correlation functional (TD-DFT)         ... PBE
   PBE beta parameter CBetaPBE (TD-DFT) ...  0.066725
 LDA part of GGA corr.  LDAOpt (TD-DFT) ... PW91-LDA
Hybrid DFT                              ... on
   Exchange mixing (TD-DFT)             ...  0.250
   GGA exch. scaling (TD-DFT)           ...  0.750
   GGA corr. scaling (TD-DFT)           ...  1.000

Building densities             ... done
Calculating rho(r) on the grid ... done
Building xc-kernel on the grid ... done
                    *** TD-DFT CALCULATION INITIALIZED ***

---------------------------------
    LR-CPCM (non-equilibrium)
---------------------------------

Setting up CPCM data             ... done

-------------------
RPA-DIAGONALIZATION
-------------------

Dimension of the (A+B)(A-B) eigenvalue problem ... 404100
Number of roots to be determined               ...     30
Maximum size of the expansion space            ...    900
Convergence tolerance for the residual         ...    2.500e-07
Convergence tolerance for the energies         ...    2.500e-07
Orthogonality tolerance                        ...    1.000e-14
Constructing the preconditioner                ... o.k.
Building the initial guess                     ... o.k.
Number of trial vectors determined             ...    900


                       ****Iteration    0****
   Time for iteration     :  TOTAL=7479.2 TRAFO=52.5 RIJ=802.2 COSX=4164.0 XC=497.6 CPCM=1940.9
   Size of expansion space: 90
   Lowest Energy          :     0.075110641675
   Maximum Energy change  :     0.187891400010 (vector 29)
   Maximum residual norm  :     0.034412192564

                       ****Iteration    1****
   Time for iteration     :  TOTAL=2410.0 TRAFO=15.9 RIJ=265.7 COSX=1344.2 XC=176.5 CPCM=600.9
   Size of expansion space: 120
   Lowest Energy          :     0.063937134978
   Maximum Energy change  :     0.011323048468 (vector 13)
   Maximum residual norm  :     0.005516766287

                       ****Iteration    2****
   Time for iteration     :  TOTAL=2413.1 TRAFO=16.4 RIJ=270.7 COSX=1323.8 XC=187.9 CPCM=607.1
   Size of expansion space: 150
   Lowest Energy          :     0.063416811106
   Maximum Energy change  :     0.002664340159 (vector 28)
   Maximum residual norm  :     0.002950519090

                       ****Iteration    3****
   Time for iteration     :  TOTAL=2441.8 TRAFO=16.2 RIJ=272.8 COSX=1368.0 XC=187.8 CPCM=589.9
   Size of expansion space: 180
   Lowest Energy          :     0.063344996002
   Maximum Energy change  :     0.000966255482 (vector 29)
   Maximum residual norm  :     0.000256189474

                       ****Iteration    4****
   Time for iteration     :  TOTAL=2473.9 TRAFO=16.4 RIJ=279.2 COSX=1355.8 XC=194.1 CPCM=621.8
   Size of expansion space: 210
   Lowest Energy          :     0.063327025945
   Maximum Energy change  :     0.000271328414 (vector 29)
   Maximum residual norm  :     0.000219646689

                       ****Iteration    5****
   Time for iteration     :  TOTAL=2488.4 TRAFO=16.4 RIJ=278.8 COSX=1387.6 XC=189.9 CPCM=608.7
   Size of expansion space: 240
   Lowest Energy          :     0.063326061137
   Maximum Energy change  :     0.000206725645 (vector 28)
   Maximum residual norm  :     0.000036233651

                       ****Iteration    6****
   Time for iteration     :  TOTAL=2509.2 TRAFO=16.0 RIJ=274.2 COSX=1412.8 XC=194.5 CPCM=604.5
   Size of expansion space: 270
   Lowest Energy          :     0.063325876656
   Maximum Energy change  :     0.000016388458 (vector 28)
   Maximum residual norm  :     0.000006582863

                       ****Iteration    7****
   Time for iteration     :  TOTAL=2527.3 TRAFO=16.3 RIJ=282.9 COSX=1404.9 XC=193.4 CPCM=623.0
   Size of expansion space: 300
   Lowest Energy          :     0.063325836346
   Maximum Energy change  :     0.000003198405 (vector 28)
   Maximum residual norm  :     0.000002442732

                       ****Iteration    8****
   Time for iteration     :  TOTAL=2533.0 TRAFO=16.0 RIJ=280.9 COSX=1430.7 XC=193.2 CPCM=604.9
   Size of expansion space: 330
   Lowest Energy          :     0.063325834866
   Maximum Energy change  :     0.000001095497 (vector 28)
   Maximum residual norm  :     0.000000380092

                       ****Iteration    9****
   Time for iteration     :  TOTAL=2543.9 TRAFO=16.5 RIJ=280.4 COSX=1428.2 XC=192.2 CPCM=619.3
   Size of expansion space: 360
   Lowest Energy          :     0.063325834125
   Maximum Energy change  :     0.000000190441 (vector 28)

         *** CONVERGENCE OF ENERGIES REACHED ***

Storing the converged CI vectors               ... tddft.cis1

                 *** DAVIDSON DONE ***

Total time for solving the RPA problem: 30328.112sec

--------------------------------
TD-DFT EXCITED STATES (SINGLETS)
--------------------------------

the weight of the individual excitations are printed if larger than 1.0e-02

STATE  1:  E=   0.063326 au      1.723 eV    13898.4 cm**-1 <S**2> =   0.000000 Mult 1
   244a -> 247a  :     0.022003 
   245a -> 246a  :     0.966325 

STATE  2:  E=   0.081764 au      2.225 eV    17945.1 cm**-1 <S**2> =   0.000000 Mult 1
   244a -> 246a  :     0.889897 
   245a -> 247a  :     0.086786 

STATE  3:  E=   0.118151 au      3.215 eV    25931.1 cm**-1 <S**2> =   0.000000 Mult 1
   241a -> 246a  :     0.014432 
   242a -> 246a  :     0.874556 
   243a -> 246a  :     0.046356 
   245a -> 247a  :     0.039574 

STATE  4:  E=   0.118670 au      3.229 eV    26045.0 cm**-1 <S**2> =   0.000000 Mult 1
   241a -> 246a  :     0.030132 
   242a -> 246a  :     0.050168 
   244a -> 246a  :     0.056647 
   244a -> 249a  :     0.012629 
   245a -> 247a  :     0.795135 
   245a -> 248a  :     0.021518 
   245a -> 249a  :     0.010133 

STATE  5:  E=   0.123344 au      3.356 eV    27070.8 cm**-1 <S**2> =   0.000000 Mult 1
   240a -> 246a  :     0.823537 
   240a -> 247a  :     0.028511 
   240a -> 248a  :     0.026294 
   240a -> 249a  :     0.028225 
   241a -> 246a  :     0.034574 
   245a -> 248a  :     0.021433 

STATE  6:  E=   0.123934 au      3.372 eV    27200.4 cm**-1 <S**2> =   0.000000 Mult 1
   240a -> 246a  :     0.024300 
   241a -> 246a  :     0.019124 
   245a -> 248a  :     0.904668 
   245a -> 249a  :     0.010242 

STATE  7:  E=   0.126397 au      3.439 eV    27741.0 cm**-1 <S**2> =   0.000000 Mult 1
   238a -> 246a  :     0.017968 
   239a -> 246a  :     0.011477 
   240a -> 246a  :     0.034298 
   241a -> 246a  :     0.846646 
   244a -> 246a  :     0.016375 
   245a -> 247a  :     0.023826 
   245a -> 248a  :     0.016451 

STATE  8:  E=   0.127051 au      3.457 eV    27884.5 cm**-1 <S**2> =   0.000000 Mult 1
   238a -> 246a  :     0.265342 
   238a -> 248a  :     0.027976 
   239a -> 246a  :     0.606737 
   239a -> 248a  :     0.041778 
   241a -> 246a  :     0.023309 

STATE  9:  E=   0.131854 au      3.588 eV    28938.6 cm**-1 <S**2> =   0.000000 Mult 1
   242a -> 246a  :     0.048513 
   243a -> 246a  :     0.946446 

STATE 10:  E=   0.135225 au      3.680 eV    29678.4 cm**-1 <S**2> =   0.000000 Mult 1
   244a -> 247a  :     0.557207 
   245a -> 246a  :     0.012927 
   245a -> 248a  :     0.010809 
   245a -> 249a  :     0.378160 

STATE 11:  E=   0.138731 au      3.775 eV    30448.0 cm**-1 <S**2> =   0.000000 Mult 1
   238a -> 246a  :     0.397835 
   239a -> 246a  :     0.192395 
   240a -> 246a  :     0.013268 
   244a -> 247a  :     0.061865 
   244a -> 248a  :     0.234320 
   245a -> 249a  :     0.049060 

STATE 12:  E=   0.139919 au      3.807 eV    30708.6 cm**-1 <S**2> =   0.000000 Mult 1
   238a -> 246a  :     0.214460 
   239a -> 246a  :     0.086845 
   244a -> 247a  :     0.126012 
   244a -> 248a  :     0.223515 
   245a -> 249a  :     0.309008 

STATE 13:  E=   0.145737 au      3.966 eV    31985.5 cm**-1 <S**2> =   0.000000 Mult 1
   238a -> 246a  :     0.015298 
   244a -> 247a  :     0.204453 
   244a -> 248a  :     0.504279 
   245a -> 249a  :     0.213263 

STATE 14:  E=   0.147599 au      4.016 eV    32394.1 cm**-1 <S**2> =   0.000000 Mult 1
   234a -> 246a  :     0.016416 
   235a -> 246a  :     0.929414 
   238a -> 246a  :     0.010170 

STATE 15:  E=   0.154395 au      4.201 eV    33885.7 cm**-1 <S**2> =   0.000000 Mult 1
   237a -> 246a  :     0.944924 

STATE 16:  E=   0.160551 au      4.369 eV    35236.8 cm**-1 <S**2> =   0.000000 Mult 1
   240a -> 247a  :     0.010285 
   244a -> 249a  :     0.911085 
   245a -> 247a  :     0.015225 

STATE 17:  E=   0.162834 au      4.431 eV    35737.8 cm**-1 <S**2> =   0.000000 Mult 1
   245a -> 250a  :     0.918847 
   245a -> 251a  :     0.011626 
   245a -> 252a  :     0.024253 
   245a -> 253a  :     0.023568 

STATE 18:  E=   0.165249 au      4.497 eV    36267.9 cm**-1 <S**2> =   0.000000 Mult 1
   239a -> 247a  :     0.010060 
   240a -> 246a  :     0.081302 
   240a -> 247a  :     0.376808 
   240a -> 248a  :     0.111523 
   240a -> 249a  :     0.252963 
   241a -> 247a  :     0.015848 
   244a -> 249a  :     0.026497 

STATE 19:  E=   0.166887 au      4.541 eV    36627.5 cm**-1 <S**2> =   0.000000 Mult 1
   230a -> 246a  :     0.015986 
   231a -> 246a  :     0.604242 
   234a -> 246a  :     0.256622 
   236a -> 246a  :     0.054418 

STATE 20:  E=   0.167401 au      4.555 eV    36740.4 cm**-1 <S**2> =   0.000000 Mult 1
   245a -> 250a  :     0.044670 
   245a -> 252a  :     0.674899 
   245a -> 253a  :     0.204901 
   245a -> 254a  :     0.048776 

STATE 21:  E=   0.169411 au      4.610 eV    37181.4 cm**-1 <S**2> =   0.000000 Mult 1
   231a -> 246a  :     0.271680 
   233a -> 246a  :     0.045764 
   234a -> 246a  :     0.416889 
   236a -> 246a  :     0.235172 

STATE 22:  E=   0.169956 au      4.625 eV    37301.0 cm**-1 <S**2> =   0.000000 Mult 1
   233a -> 246a  :     0.860115 
   234a -> 246a  :     0.016126 
   236a -> 246a  :     0.016782 
   238a -> 248a  :     0.019050 
   239a -> 248a  :     0.025408 

STATE 23:  E=   0.173123 au      4.711 eV    37996.0 cm**-1 <S**2> =   0.000000 Mult 1
   234a -> 246a  :     0.254680 
   235a -> 246a  :     0.015767 
   236a -> 246a  :     0.619201 
   245a -> 251a  :     0.033690 
   245a -> 253a  :     0.035181 
   245a -> 254a  :     0.010906 

STATE 24:  E=   0.173127 au      4.711 eV    37997.0 cm**-1 <S**2> =   0.000000 Mult 1
   234a -> 246a  :     0.025513 
   236a -> 246a  :     0.060218 
   245a -> 251a  :     0.345880 
   245a -> 252a  :     0.074104 
   245a -> 253a  :     0.356056 
   245a -> 254a  :     0.108887 

STATE 25:  E=   0.174890 au      4.759 eV    38383.9 cm**-1 <S**2> =   0.000000 Mult 1
   222a -> 246a  :     0.099434 
   223a -> 246a  :     0.018354 
   231a -> 246a  :     0.011805 
   233a -> 246a  :     0.053830 
   238a -> 246a  :     0.029921 
   238a -> 248a  :     0.198021 
   238a -> 249a  :     0.049464 
   239a -> 246a  :     0.040036 
   239a -> 248a  :     0.347143 
   239a -> 249a  :     0.078809 

STATE 26:  E=   0.175742 au      4.782 eV    38570.8 cm**-1 <S**2> =   0.000000 Mult 1
   245a -> 250a  :     0.010004 
   245a -> 251a  :     0.520473 
   245a -> 253a  :     0.132727 
   245a -> 254a  :     0.317555 

STATE 27:  E=   0.179401 au      4.882 eV    39374.0 cm**-1 <S**2> =   0.000000 Mult 1
   219a -> 246a  :     0.056165 
   220a -> 246a  :     0.018420 
   222a -> 246a  :     0.542302 
   223a -> 246a  :     0.207390 
   226a -> 246a  :     0.032793 
   233a -> 246a  :     0.013613 
   238a -> 248a  :     0.022872 
   239a -> 248a  :     0.046671 

STATE 28:  E=   0.180986 au      4.925 eV    39721.8 cm**-1 <S**2> =   0.000000 Mult 1
   242a -> 247a  :     0.013706 
   245a -> 251a  :     0.079356 
   245a -> 252a  :     0.190387 
   245a -> 253a  :     0.214180 
   245a -> 254a  :     0.462647 
   245a -> 256a  :     0.015866 

STATE 29:  E=   0.182336 au      4.962 eV    40018.0 cm**-1 <S**2> =   0.000000 Mult 1
   226a -> 246a  :     0.084916 
   242a -> 247a  :     0.785562 
   243a -> 247a  :     0.043160 

STATE 30:  E=   0.183671 au      4.998 eV    40311.1 cm**-1 <S**2> =   0.000000 Mult 1
   222a -> 246a  :     0.019988 
   225a -> 246a  :     0.011692 
   226a -> 246a  :     0.785946 
   231a -> 246a  :     0.015498 
   241a -> 247a  :     0.022802 
   242a -> 247a  :     0.081806 


-----------------------------
 TD-DFT-EXCITATION SPECTRA
-----------------------------

Center of mass = ( 74.6342, 99.1885, 41.9481)
Generating RPA transition densities
 done

----------------------------------------------------------------------------------------------------
                     ABSORPTION SPECTRUM VIA TRANSITION ELECTRIC DIPOLE MOMENTS    
----------------------------------------------------------------------------------------------------
     Transition      Energy     Energy  Wavelength fosc(D2)      D2        DX        DY        DZ   
                      (eV)      (cm-1)    (nm)                 (au**2)    (au)      (au)      (au)  
----------------------------------------------------------------------------------------------------
  0-1A  ->  1-1A    1.723184   13898.4   719.5   0.555009685  13.14652   3.19211   1.52711  -0.79050
  0-1A  ->  2-1A    2.224912   17945.1   557.3   0.188648072   3.46084  -1.15805   1.39153  -0.42826
  0-1A  ->  3-1A    3.215050   25931.1   385.6   0.014180016   0.18002  -0.18075   0.36748  -0.11096
  0-1A  ->  4-1A    3.229170   26045.0   384.0   0.405716337   5.12830   1.36244  -1.72981   0.52897
  0-1A  ->  5-1A    3.356348   27070.8   369.4   0.004072933   0.04953   0.16661  -0.14141   0.04216
  0-1A  ->  6-1A    3.372423   27200.4   367.6   0.075197683   0.91013   0.10697  -0.93008   0.18341
  0-1A  ->  7-1A    3.439449   27741.0   360.5   0.171523059   2.03552   0.89472  -1.06325   0.32325
  0-1A  ->  8-1A    3.457240   27884.5   358.6   0.009858859   0.11640   0.19870  -0.27519   0.03444
  0-1A  ->  9-1A    3.587924   28938.6   345.6   0.000208338   0.00237  -0.01652   0.04168  -0.01897
  0-1A  -> 10-1A    3.679652   29678.4   336.9   0.745901379   8.27402   2.85100   0.30615  -0.22822
  0-1A  -> 11-1A    3.775069   30448.0   328.4   0.018261225   0.19745  -0.07075   0.39856  -0.18328
  0-1A  -> 12-1A    3.807385   30708.6   325.6   0.028738094   0.30809   0.26071  -0.45477   0.18248
  0-1A  -> 13-1A    3.965699   31985.5   312.6   0.566155096   5.82717  -0.99856  -2.05276   0.78501
  0-1A  -> 14-1A    4.016362   32394.2   308.7   0.005852048   0.05947   0.07507   0.22186  -0.06792
  0-1A  -> 15-1A    4.201289   33885.7   295.1   0.018507310   0.17981   0.38995   0.11522  -0.12028
  0-1A  -> 16-1A    4.368803   35236.8   283.8   0.389682938   3.64075   1.57868  -1.04646   0.23120
  0-1A  -> 17-1A    4.430925   35737.8   279.8   0.006096905   0.05616  -0.23575  -0.02338  -0.00631
  0-1A  -> 18-1A    4.496648   36267.9   275.7   0.007454826   0.06767   0.20083  -0.14409   0.08110
  0-1A  -> 19-1A    4.541233   36627.5   273.0   0.002994714   0.02692  -0.16377  -0.00877   0.00432
  0-1A  -> 20-1A    4.555224   36740.4   272.2   0.000304936   0.00273   0.01459  -0.04615   0.01974
  0-1A  -> 21-1A    4.609911   37181.4   269.0   0.004393299   0.03890  -0.19617   0.02019  -0.00278
  0-1A  -> 22-1A    4.624737   37301.0   268.1   0.005887621   0.05196  -0.13351   0.16770  -0.07755
  0-1A  -> 23-1A    4.710905   37996.0   263.2   0.001134372   0.00983  -0.08865  -0.03542  -0.02676
  0-1A  -> 24-1A    4.711032   37997.0   263.2   0.005073620   0.04396  -0.15770  -0.09845  -0.09694
  0-1A  -> 25-1A    4.759001   38383.9   260.5   0.004675423   0.04010   0.09199  -0.12249   0.12898
  0-1A  -> 26-1A    4.782170   38570.8   259.3   0.001118949   0.00955  -0.01476   0.01815   0.09489
  0-1A  -> 27-1A    4.881749   39374.0   254.0   0.006029372   0.05041   0.16635  -0.12192   0.08876
  0-1A  -> 28-1A    4.924869   39721.8   251.8   0.004233754   0.03509   0.00047  -0.11953  -0.14423
  0-1A  -> 29-1A    4.961604   40018.0   249.9   0.161402080   1.32779  -1.00181   0.52266  -0.22583
  0-1A  -> 30-1A    4.997943   40311.1   248.1   0.007366928   0.06016  -0.23851  -0.04845  -0.03052

----------------------------------------------------------------------------------------------------
                     ABSORPTION SPECTRUM VIA TRANSITION VELOCITY DIPOLE MOMENTS    
----------------------------------------------------------------------------------------------------
     Transition      Energy     Energy  Wavelength fosc(P2)      P2        PX        PY        PZ   
                      (eV)      (cm-1)    (nm)                 (au**2)    (au)      (au)      (au)  
----------------------------------------------------------------------------------------------------
  0-1A  ->  1-1A    1.723184   13898.4   719.5   0.552969852   0.05253  -0.20179  -0.09644   0.05007
  0-1A  ->  2-1A    2.224912   17945.1   557.3   0.188179892   0.02308   0.09442  -0.11376   0.03498
  0-1A  ->  3-1A    3.215050   25931.1   385.6   0.014262392   0.00253   0.02126  -0.04370   0.01290
  0-1A  ->  4-1A    3.229170   26045.0   384.0   0.404888570   0.07207  -0.16135   0.20524  -0.06259
  0-1A  ->  5-1A    3.356348   27070.8   369.4   0.004000223   0.00074  -0.02072   0.01667  -0.00576
  0-1A  ->  6-1A    3.372423   27200.4   367.6   0.075187405   0.01398  -0.01369   0.11518  -0.02288
  0-1A  ->  7-1A    3.439449   27741.0   360.5   0.170901352   0.03240  -0.11254   0.13444  -0.04078
  0-1A  ->  8-1A    3.457240   27884.5   358.6   0.009895654   0.00189  -0.02522   0.03503  -0.00475
  0-1A  ->  9-1A    3.587924   28938.6   345.6   0.000209074   0.00004   0.00217  -0.00553   0.00246
  0-1A  -> 10-1A    3.679652   29678.4   336.9   0.742124349   0.15053  -0.38443  -0.04207   0.03123
  0-1A  -> 11-1A    3.775069   30448.0   328.4   0.017956917   0.00374   0.00995  -0.05473   0.02535
  0-1A  -> 12-1A    3.807385   30708.6   325.6   0.028351063   0.00595  -0.03668   0.06291  -0.02544
  0-1A  -> 13-1A    3.965699   31985.5   312.6   0.563775995   0.12324   0.14557   0.29837  -0.11413
  0-1A  -> 14-1A    4.016362   32394.2   308.7   0.005842198   0.00129  -0.01106  -0.03269   0.01013
  0-1A  -> 15-1A    4.201289   33885.7   295.1   0.018509306   0.00429  -0.06015  -0.01793   0.01863
  0-1A  -> 16-1A    4.368803   35236.8   283.8   0.390316543   0.09400  -0.25379   0.16789  -0.03742
  0-1A  -> 17-1A    4.430925   35737.8   279.8   0.006065976   0.00148   0.03820   0.00467   0.00085
  0-1A  -> 18-1A    4.496648   36267.9   275.7   0.007462099   0.00185  -0.03269   0.02493  -0.01264
  0-1A  -> 19-1A    4.541233   36627.5   273.0   0.002975083   0.00074   0.02723   0.00186   0.00024
  0-1A  -> 20-1A    4.555224   36740.4   272.2   0.000273818   0.00007  -0.00213   0.00747  -0.00289
  0-1A  -> 21-1A    4.609911   37181.4   269.0   0.004377667   0.00111   0.03317  -0.00342   0.00087
  0-1A  -> 22-1A    4.624737   37301.0   268.1   0.005861999   0.00149   0.02229  -0.02878   0.01300
  0-1A  -> 23-1A    4.710905   37996.0   263.2   0.001124218   0.00029   0.01529   0.00597   0.00475
  0-1A  -> 24-1A    4.711032   37997.0   263.2   0.005004023   0.00130   0.02703   0.01662   0.01711
  0-1A  -> 25-1A    4.759001   38383.9   260.5   0.004620278   0.00121  -0.01608   0.02165  -0.02202
  0-1A  -> 26-1A    4.782170   38570.8   259.3   0.001119221   0.00030   0.00210  -0.00326  -0.01673
  0-1A  -> 27-1A    4.881749   39374.0   254.0   0.005968684   0.00161  -0.02961   0.02192  -0.01578
  0-1A  -> 28-1A    4.924869   39721.8   251.8   0.004164705   0.00113   0.00032   0.02112   0.02616
  0-1A  -> 29-1A    4.961604   40018.0   249.9   0.160545764   0.04391   0.18192  -0.09534   0.04153
  0-1A  -> 30-1A    4.997943   40311.1   248.1   0.007434551   0.00205   0.04395   0.00915   0.00572

------------------------------------------------------------------------------------------
                     CD SPECTRUM VIA TRANSITION ELECTRIC DIPOLE MOMENTS    
------------------------------------------------------------------------------------------
     Transition      Energy     Energy  Wavelength    R        MX        MY        MZ   
                      (eV)      (cm-1)    (nm)   (1e40*cgs)   (au)      (au)      (au)  
------------------------------------------------------------------------------------------
  0-1A  ->  1-1A    1.723184   13898.4   719.5   13.73567  -0.20357  -0.13971  -1.05509
  0-1A  ->  2-1A    2.224912   17945.1   557.3    4.07873  -0.13393  -0.12948  -0.03835
  0-1A  ->  3-1A    3.215050   25931.1   385.6    3.00260  -0.02163   0.09829   0.41814
  0-1A  ->  4-1A    3.229170   26045.0   384.0    6.41335   0.22424   0.05342  -0.42860
  0-1A  ->  5-1A    3.356348   27070.8   369.4  -22.26410   0.11197  -0.20443  -0.00804
  0-1A  ->  6-1A    3.372423   27200.4   367.6   30.64166   0.13271   0.18380   0.50027
  0-1A  ->  7-1A    3.439449   27741.0   360.5   33.49879   0.08504   0.08165  -0.18663
  0-1A  ->  8-1A    3.457240   27884.5   358.6  -17.36747   0.30234   0.08642   0.01582
  0-1A  ->  9-1A    3.587924   28938.6   345.6   -0.34259  -0.01841  -0.03228  -0.09317
  0-1A  -> 10-1A    3.679652   29678.4   336.9   -1.86509  -0.13234  -0.20698  -1.94828
  0-1A  -> 11-1A    3.775069   30448.0   328.4  -22.94490  -0.13580  -0.32272  -0.91488
  0-1A  -> 12-1A    3.807385   30708.6   325.6   -5.87232   0.11081   0.02984  -0.01570
  0-1A  -> 13-1A    3.965699   31985.5   312.6   54.55662   0.46857   0.21755   1.01751
  0-1A  -> 14-1A    4.016362   32394.2   308.7  -13.83807   0.15038   0.01009  -0.23297
  0-1A  -> 15-1A    4.201289   33885.7   295.1   10.82723  -0.06864   0.13295   0.09577
  0-1A  -> 16-1A    4.368803   35236.8   283.8  -45.53255   0.17580   0.01979  -0.69309
  0-1A  -> 17-1A    4.430925   35737.8   279.8   -1.34618  -0.02629   0.06207   0.29980
  0-1A  -> 18-1A    4.496648   36267.9   275.7   44.46699  -0.12527   0.31554  -0.29221
  0-1A  -> 19-1A    4.541233   36627.5   273.0    2.60398   0.03757   0.00756   0.16136
  0-1A  -> 20-1A    4.555224   36740.4   272.2   -0.02755  -0.02137   0.00111   0.02136
  0-1A  -> 21-1A    4.609911   37181.4   269.0   -1.05031  -0.01324   0.00089   0.13972
  0-1A  -> 22-1A    4.624737   37301.0   268.1    0.31992  -0.12747  -0.05895   0.10071
  0-1A  -> 23-1A    4.710905   37996.0   263.2   -3.71950  -0.01686  -0.06639  -0.15113
  0-1A  -> 24-1A    4.711032   37997.0   263.2  -41.13140  -0.07028  -0.23396  -0.54807
  0-1A  -> 25-1A    4.759001   38383.9   260.5    7.99300  -0.28962  -0.10545  -0.02503
  0-1A  -> 26-1A    4.782170   38570.8   259.3   26.17202   0.05506  -0.18026  -0.54202
  0-1A  -> 27-1A    4.881749   39374.0   254.0   10.52729  -0.06307   0.02542  -0.09846
  0-1A  -> 28-1A    4.924869   39721.8   251.8   15.80467  -0.05362   0.06805   0.17586
  0-1A  -> 29-1A    4.961604   40018.0   249.9   -2.48308  -0.16402  -0.09332   0.48830
  0-1A  -> 30-1A    4.997943   40311.1   248.1   -3.06436  -0.08319   0.05271   0.35345

------------------------------------------------------------------------------------------
                     CD SPECTRUM VIA TRANSITION VELOCITY DIPOLE MOMENTS    
------------------------------------------------------------------------------------------
     Transition      Energy     Energy  Wavelength    R        MX        MY        MZ   
                      (eV)      (cm-1)    (nm)   (1e40*cgs)   (au)      (au)      (au)  
------------------------------------------------------------------------------------------
  0-1A  ->  1-1A    1.723184   13898.4   719.5   12.81957  -0.20357  -0.13971  -1.05509
  0-1A  ->  2-1A    2.224912   17945.1   557.3    4.27707  -0.13393  -0.12948  -0.03835
  0-1A  ->  3-1A    3.215050   25931.1   385.6    2.54743  -0.02163   0.09829   0.41814
  0-1A  ->  4-1A    3.229170   26045.0   384.0    6.39461   0.22424   0.05342  -0.42860
  0-1A  ->  5-1A    3.356348   27070.8   369.4  -21.71218   0.11197  -0.20443  -0.00804
  0-1A  ->  6-1A    3.372423   27200.4   367.6   30.07144   0.13271   0.18380   0.50027
  0-1A  ->  7-1A    3.439449   27741.0   360.5   33.62980   0.08504   0.08165  -0.18663
  0-1A  ->  8-1A    3.457240   27884.5   358.6  -17.34340   0.30234   0.08642   0.01582
  0-1A  ->  9-1A    3.587924   28938.6   345.6   -0.32354  -0.01841  -0.03228  -0.09317
  0-1A  -> 10-1A    3.679652   29678.4   336.9   -4.39761  -0.13234  -0.20698  -1.94828
  0-1A  -> 11-1A    3.775069   30448.0   328.4  -23.39964  -0.13580  -0.32272  -0.91488
  0-1A  -> 12-1A    3.807385   30708.6   325.6   -6.02342   0.11081   0.02984  -0.01570
  0-1A  -> 13-1A    3.965699   31985.5   312.6   54.95816   0.46857   0.21755   1.01751
  0-1A  -> 14-1A    4.016362   32394.2   308.7  -13.90600   0.15038   0.01009  -0.23297
  0-1A  -> 15-1A    4.201289   33885.7   295.1   10.77296  -0.06864   0.13295   0.09577
  0-1A  -> 16-1A    4.368803   35236.8   283.8  -45.09831   0.17580   0.01979  -0.69309
  0-1A  -> 17-1A    4.430925   35737.8   279.8   -1.33380  -0.02629   0.06207   0.29980
  0-1A  -> 18-1A    4.496648   36267.9   275.7   44.66135  -0.12527   0.31554  -0.29221
  0-1A  -> 19-1A    4.541233   36627.5   273.0    3.04068   0.03757   0.00756   0.16136
  0-1A  -> 20-1A    4.555224   36740.4   272.2   -0.02202  -0.02137   0.00111   0.02136
  0-1A  -> 21-1A    4.609911   37181.4   269.0   -0.89312  -0.01324   0.00089   0.13972
  0-1A  -> 22-1A    4.624737   37301.0   268.1    0.45666  -0.12747  -0.05895   0.10071
  0-1A  -> 23-1A    4.710905   37996.0   263.2   -3.73580  -0.01686  -0.06639  -0.15113
  0-1A  -> 24-1A    4.711032   37997.0   263.2  -41.29319  -0.07028  -0.23396  -0.54807
  0-1A  -> 25-1A    4.759001   38383.9   260.5    7.88579  -0.28962  -0.10545  -0.02503
  0-1A  -> 26-1A    4.782170   38570.8   259.3   26.21764   0.05506  -0.18026  -0.54202
  0-1A  -> 27-1A    4.881749   39374.0   254.0   10.45489  -0.06307   0.02542  -0.09846
  0-1A  -> 28-1A    4.924869   39721.8   251.8   15.68377  -0.05362   0.06805   0.17586
  0-1A  -> 29-1A    4.961604   40018.0   249.9   -1.71357  -0.16402  -0.09332   0.48830
  0-1A  -> 30-1A    4.997943   40311.1   248.1   -2.96237  -0.08319   0.05271   0.35345

Total run time:    30416.309 sec

           *** ORCA-CIS/TD-DFT FINISHED WITHOUT ERROR ***
-----------------------
CIS/TD-DFT TOTAL ENERGY
-----------------------

    E(SCF)  =  -3008.729346509 Eh
    DE(CIS) =      0.063325834 Eh (Root  1)
    ----------------------------- ---------
    E(tot)  =  -3008.666020675 Eh


Maximum memory used throughout the entire CIS-calculation: 1819.9 MB
=> NOW LEAVING ORCA_CIS

-------------------------   --------------------
FINAL SINGLE POINT ENERGY     -3008.666020674948
-------------------------   --------------------



           ************************************************************
           *        Program running with 4 parallel MPI-processes     *
           *              working on a common directory               *
           ************************************************************

------------------------------------------------------------------------------
                              ORCA PROPERTY CALCULATIONS
------------------------------------------------------------------------------

GBWName                                 ... tddft.gbw
Number of atoms                         ...    140
Number of basis functions               ...   2491
Max core memory                         ...   2200 MB

Electric properties:
Dipole moment                           ... YES
Quadrupole moment                       ...  NO
Static polarizability (Dipole/Dipole)   ...  NO
Static polarizability (Dipole/Quad.)    ...  NO
Static polarizability (Quad./Quad.)     ...  NO
Static polarizability (Velocity)        ...  NO
Static hyperpolarizability              ...  NO

Atomic electric properties:
Dipole moment                           ...  NO
Quadrupole moment                       ...  NO
Static polarizability                   ...  NO

Choice of electric origin               ... Center of mass
Position of electric origin             ...    74.634185    99.188498    41.948136

General magnetic properties:
Magnetizability                         ...  NO

EPR properties:
g-Tensor (aka g-matrix)                 ...  NO
Zero-Field splitting spin-orbit         ...  NO
Zero-field splitting spin-spin          ...  NO
Hyperfine couplings                     ...  NO (   0 nuclei)
Quadrupole couplings                    ...  NO (   0 nuclei)
Contact density                         ...  NO (   0 nuclei)

NMR properties:
Chemical shifts                         ...  NO (   0 nuclei)
Spin-rotation constants                 ...  NO (   0 nuclei)
Spin-spin couplings                     ...  NO (   0 nuclei,    0 pairs)

Choice of magnetic origin               ... GIAO
Position of magnetic origin             ...     0.000000     0.000000     0.000000

Properties with geometric perturbations:
SCF Hessian                             ...  NO
IR spectrum                             ...  NO
VCD spectrum                            ...  NO
X-ray spectroscopy properties:
SCF XES/XAS/RIXS spectra                ...  NO

SCF SOC stabilization energy            ...  NO
Diagonal Born-Oppenheimer correction    ...  NO

-------------
DIPOLE MOMENT
-------------

Method             : SCF
Type of density    : Electron Density
Multiplicity       :   1
Irrep              :   0
Energy             : -3008.7293465090729114 Eh
Basis              : AO
                                X                 Y                 Z
Electronic contribution:     58.246893776    -190.936531604      33.761386573
Nuclear contribution   :    -55.918878543     192.827421473     -34.236029130
                        -----------------------------------------
Total Dipole Moment    :      2.328015233       1.890889868      -0.474642557
                        -----------------------------------------
Magnitude (a.u.)       :      3.036511975
Magnitude (Debye)      :      7.718200065



--------------------
Rotational spectrum 
--------------------
 
Rotational constants in cm-1:             0.001477             0.000339             0.000316 
Rotational constants in MHz :            44.283578            10.162134             9.458462 

Dipole components along the rotational axes: 
x,y,z [a.u.] :    -0.706928     2.851569     0.767601 
x,y,z [Debye]:    -1.796868     7.248113     1.951086 

 

Dipole moment calculation done in   0.3 sec 

Maximum memory used throughout the entire PROP-calculation: 430.9 MB

--------------------------------
SUGGESTED CITATIONS FOR THIS RUN
--------------------------------

Below you find a list of papers that are relevant to this ORCA run
We neither can nor want to force you to cite these papers, but we appreciate if you do
You receive ORCA, which is the product of decades of hard work by many enthusiastic individuals, for free
The only thing we kindly ask in return is that you cite our papers,
We deeply appreciate it, if you show your appreciation for ORCA by not just citing the generic ORCA reference.

Please note that relegating all ORCA citations to the supporting information does *not* help us.
SI sections are not indexed - citations you put there will not count into any citation statistics
But we need these citations in order to attract the funding resources that allow us to do what we are doing

Therefore, if you are a happy ORCA user, please consider citing a few of the papers listed below in the main body of your paper

In addition to the list printed below, the program has created the file tddft.bibtex that contains the list in bibtex format
You can import this file easily into all common literature databanks and citation aid programs

It goes without saying that in many instances, there are alternative algorithms to achieve similar
results as the ones you have gotten from ORCA. It is, of course, also the case that in some instances
ORCA just re-implements algorithms worked out by others. We are fully aware of that and we are also
fully appreciative of our colleagues work. Hence this citation list should not be read as indicating
that the listed papers, which are focused on our own work, are the only ones worth citing. It simply
meant to make it easier for users to cite ORCA specific papers. It is not a substitute for doing your
own literature research and citing the relevant literature in a scientifically appropriate manner.

List of essential papers. We consider these as the minimum necessary citations

  1. Neese, F.
     Software update: the ORCA program system, version 6.0
     WIRES Comput. Molec. Sci. 2025 15(1), e70019
     doi.org/10.1002/wcms.70019

List of papers to cite with high priority. The work reported in these papers was absolutely
necessary for this run to complete.
Our perspective: the developers of density functionals and basis sets usually get cited in chemistry papers
Good! But without the algorithms to do something with them, the functionals or basis sets would not do anything.
Hence, in our opinion, the algorithm design and method developments papers are equally worthy of getting cited

  1. Neese, F.; Olbrich, G.
     Efficient use of the resolution of the identity approximation in time-dependent density functional calculations with hybrid density functionals
     Chem. Phys. Lett. 2002 362 , 170-178
     doi.org/10.1016/s0009-2614(02)01053-9
  2. Neese, F.
     An improvement of the resolution of the identity approximation for the formation of the Coulomb matrix
     J. Comp. Chem. 2003 24(14), 1740-1747
     doi.org/10.1002/jcc.10318
  3. Neese, F.; Wennmohs, F.; Hansen, A.; Becker, U.
     Efficient, approximate and parallel Hartree-Fock and hybrid DFT calculations. A 'chain-of-spheres' algorithm for the Hartree-Fock exchange
     Chem. Phys. 2009 356(1-3), 98-109
     doi.org/10.1016/j.chemphys.2008.10.036
  4. Garcia-Rates, M.; Neese, F.
     Effect of the Solute Cavity on the Solvation Energy and its Derivatives within the Framework of the Gaussian Charge Scheme
     J. Comput. Chem. 2020 41 , 922-939
     doi.org/10.1002/jcc.26139
  5. Helmich-Paris, B.; de Souza, B.; Neese, F.; Izsák, R.
     An improved chain of spheres for exchange algorithm
     J. Chem. Phys. 2021 155(10), 104109
     doi.org/10.1063/5.0058766
  6. Neese, F.
     The SHARK Integral Generation and Digestion System
     J. Comp. Chem. 2022 44(3), 381
     doi.org/10.1002/jcc.26942

List of suggested additional citations. These are papers that are important in the 'surrounding' of 
of this run, or papers that preceded the highly important papers. If you like your results we are grateful for a citation.

  1. Izsak, R.; Neese, F.
     An overlap fitted chain of spheres exchange method
     J. Chem. Phys. 2011 135 , 144105
     doi.org/10.1063/1.3646921
  2. Izsak, R.; Hansen, A.; Neese, F.
     The resolution of identity and chain of spheres approximations for the LPNO-CCSD singles Fock term
     Molec. Phys. 2012 110 , 2413-2417
     doi.org/10.1080/00268976.2012.687466
  3. Neese, F.
     The ORCA program system
     WIRES Comput. Molec. Sci. 2012 2(1), 73-78
     doi.org/10.1002/wcms.81
  4. Izsak, R.; Neese, F.; Klopper, W.
     Robust fitting techniques in the chain of spheres approximation to the Fock exchange: The role of the complementary space
     J. Chem. Phys. 2013 139 , 
     doi.org/10.1063/1.4819264
  5. Neese, F.
     Software update: the ORCA program system, version 4.0
     WIRES Comput. Molec. Sci. 2018 8(1), 1-6
     doi.org/10.1002/wcms.1327
  6. Neese, F.; Wennmohs, F.; Becker, U.; Riplinger, C.
     The ORCA quantum chemistry program package
     J. Chem. Phys. 2020 152(22), 224108
     doi.org/10.1063/5.0004608
  7. Neese, F.
     Software update: The ORCA program system—Version 5.0
     WIRES Comput. Molec. Sci. 2022 12(1), e1606
     doi.org/10.1002/wcms.1606

List of optional additional citations

  1. Neese, F.
     Approximate second-order SCF convergence for spin unrestricted wavefunctions
     Chem. Phys. Lett. 2000 325(1-3), 93-98
     doi.org/10.1016/s0009-2614(00)00662-x

Timings for individual modules:

Sum of individual times          ...    35992.895 sec (= 599.882 min)
Startup calculation              ...       83.600 sec (=   1.393 min)   0.2 %
SCF iterations                   ...     5486.110 sec (=  91.435 min)  15.2 %
Property integrals               ...        4.248 sec (=   0.071 min)   0.0 %
Property calculations            ...        1.970 sec (=   0.033 min)   0.0 %
CIS module                       ...    30416.967 sec (= 506.949 min)  84.5 %
                             ****ORCA TERMINATED NORMALLY****
TOTAL RUN TIME: 0 days 9 hours 59 minutes 53 seconds 495 msec
