
                                 *****************
                                 * O   R   C   A *
                                 *****************

                                            #,                                       
                                            ###                                      
                                            ####                                     
                                            #####                                    
                                            ######                                   
                                           ########,                                 
                                     ,,################,,,,,                         
                               ,,#################################,,                 
                          ,,##########################################,,             
                       ,#########################################, ''#####,          
                    ,#############################################,,   '####,        
                  ,##################################################,,,,####,       
                ,###########''''           ''''###############################       
              ,#####''   ,,,,##########,,,,          '''####'''          '####       
            ,##' ,,,,###########################,,,                        '##       
           ' ,,###''''                  '''############,,,                           
         ,,##''                                '''############,,,,        ,,,,,,###''
      ,#''                                            '''#######################'''  
     '                                                          ''''####''''         
             ,#######,   #######,   ,#######,      ##                                
            ,#'     '#,  ##    ##  ,#'     '#,    #''#        ,####,    ,#,          
            ##       ##  ##   ,#'  ##            #'  '#       #'       ,# #          
            ##       ##  #######   ##           ,######,      #####,      #          
            '#,     ,#'  ##    ##  '#,     ,#' ,#      #,     #,   #      #          
             '#######'   ##     ##  '#######'  #'      '#     '####' #    #          



                #########################################################
                #                        -***-                          #
                #          Department of theory and spectroscopy        #
                #                                                       #
                #                      Frank Neese                      #
                #                                                       #
                #     Directorship, Architecture, Infrastructure        #
                #                    SHARK, DRIVERS                     #
                #        Core code/Algorithms in most modules           #
                #                                                       #
                #        Max Planck Institute fuer Kohlenforschung      #
                #                Kaiser Wilhelm Platz 1                 #
                #                 D-45470 Muelheim/Ruhr                 #
                #                      Germany                          #
                #                                                       #
                #                  All rights reserved                  #
                #                        -***-                          #
                #########################################################


                         Program Version 6.1.1  -  RELEASE   -
                                (GIT: $487d211c$)
                          ($2025-11-21 10:33:24 +0100$)


 With contributions from (in alphabetic order):
[Max-Planck-Institut fuer Kohlenforschung]                               
  Daniel Aravena         : Magnetic Suceptibility                        
  Michael Atanasov       : Ab Initio Ligand Field Theory (pilot matlab implementation)
  Alexander A. Auer      : GIAO ZORA, VPT2 properties, NMR spectrum      
  Ute Becker             : All parallelization in ORCA, NUMFREQ, NUMCALC 
  Giovanni Bistoni       : ED, misc. LED, open-shell LED, HFLD           
  Dmytro Bykov           : pre 5.0 version of the SCF Hessian            
  Marcos Casanova-Páez   : Triplet and SCS-CIS(D). UHF-(DLPNO)-IP/EA/STEOM-CCSD. UHF-CVS-IP/STEOM-CCSD   
  Vijay G. Chilkuri      : MRCI spin determinant printing, contributions to CSF-ICE 
  Pauline Colinet        : FMM embedding                                 
  Dipayan Datta          : RHF DLPNO-CCSD density                        
  Achintya Kumar Dutta   : EOM-CC, STEOM-CC                              
  Nicolas Foglia         : Exact transition moments, OPA infrastructure, MCD improvements    
  Dmitry Ganyushin       : Spin-Orbit,Spin-Spin,Magnetic field MRCI      
  Miquel Garcia-Rates    : C-PCM and meta-GGA Hessian, CCSD/C-PCM, Gaussian charge scheme 
  Tiago L. C. Gouveia    : GS-ROHF, GS-ROCIS                             
  Yang Guo               : DLPNO-NEVPT2, F12-NEVPT2, CIM, IAO-localization        
  Andreas Hansen         : Spin unrestricted coupled pair/coupled cluster methods 
  Ingolf Harden          : AUTO-CI MPn and infrastructure                
  Benjamin Helmich-Paris : MC-RPA, TRAH-(SCF,CASSCF), AVAS, COSX integrals, SCF dyn. polar., MC-PDFT, srDFT 
  Lee Huntington         : MR-EOM, pCC                                   
  Robert Izsak           : Overlap fitted RIJCOSX, COSX-SCS-MP3, EOM     
  Riya Kayal             : Wick's Theorem for AUTO-CI, AUTO-CI UHF-CCSDT 
  Emily Kempfer          : AUTO-CI RHF CISDT and CCSDT, approximate NEVPT4
  Christian Kollmar      : KDIIS, OOCD, Brueckner-CCSD(T), CCSD density, CASPT2, CASPT2-K, improved NEVPT2 
  Axel Koslowski         : Symmetry handling                             
  Simone Kossmann        : meta-GGA functionals, TD-DFT gradient, OOMP2, (MP2 Hessian; deprecated post 5.0) 
  Lucas Lang             : DCDCAS, Hyperfine gauge corrections, ICE-SOC+SSC
  Marvin Lechner         : AUTO-CI (C++ implementation), FIC-MRCC        
  Spencer Leger          : CASSCF response                               
  Dagmar Lenk            : GEPOL surface, SMD, ORCA-2-JSON               
  Dimitrios Liakos       : Extrapolation schemes; Compound Job, Property file
  Dimitrios Manganas     : Further ROCIS development; embedding schemes. LFT, Crystal Embedding 
  Dimitrios Pantazis     : SARC Basis sets                               
  Anastasios Papadopoulos: AUTO-CI, single reference methods and gradients 
  Taras Petrenko         : pre 6.0 DFT Hessian and TD-DFT gradient,  ECA, NRVS 
  Petra Pikulova         : Analytic Raman intensities                    
  Peter Pinski           : DLPNO-MP2, DLPNO-MP2 Gradient                 
  Shashank Vittal Rao    : ES-AILFT, MagRelax                            
  Christoph Reimann      : Effective Core Potentials                     
  Marius Retegan         : Local ZFS, SOC                                
  Christoph Riplinger    : Optimizer, TS searches, QM/MM, DLPNO-CCSD(T), (RO)-DLPNO pert. Triples 
  Michael Roemelt        : Original ROCIS implementation, recursive CI coupling coefficients
  Masaaki Saitow         : Open-shell DLPNO-CCSD energy and density      
  Barbara Sandhoefer     : DKH picture change effects                    
  Yorick L. A. Schmerwitz: GMF and freeze-and-release deltaSCF, NEB S-IDPP initial path                    
  Kantharuban Sivalingam : CASSCF convergence/infrastructure, NEVPT2, NEVPT3, NEVPT4(SD), FIC-MRCI and CEPA variants
  Bernardo de Souza      : ESD, SOC TD-DFT                               
  Georgi L. Stoychev     : AutoAux, RI-MP2 NMR, DLPNO-MP2 response, X2C  
  Van Anh Tran           : RI-MP2 g-tensors                              
  Willem Van den Heuvel  : Paramagnetic NMR                              
  Zikuan Wang            : NOTCH, Electric field optimization            
  Frank Wennmohs         : Technical directorship and infrastructure     
  Hang Xu                : AUTO-CI-Response properties                   
                                                                         
[FACCTs GmbH]                                                            
  Markus Bursch, Nicolas Foglia, Miquel Garcia-Rates, Ingolf Harden, Hagen Neugebauer, Anastasios Papadopoulos, 
  Christoph Riplinger, Bernardo de Souza, Georgi L. Stoychev                                                    
                                                                 
  APM, various basis sets, CI-OPT, improved COSX, DLPNO-Multilevel,           
  DOCKER, DRACO, updates on ESD, Fragmentator, GOAT, IRC, LR-CPCM, L-BFGS, MBIS, meta-GGA TD-DFT gradient, ML-optimized integration grids, 
  MM, NACMEs, nearIR, NEB, NEB-TS, NL-DFT gradient (VV10), 2- and 3-layer-ONIOM, interface openCOSMO-RS, QMMM,   
  Crystal-QMMM, RESP, rigid body optimization, SF, symmetry and pop. for TD-DFT, various functionals, SOLVATOR                                   
                                                                         
[Other institutions]                                                     
  V. Asgeirsson          : NEB                                           
  Christoph Bannwarth    : sTDA-DFT, sTD-DFT, PBEh-3c, B97-3c, D3        
  Giovanni Bistoni       : ETS/NOCV, ADLD/ADEX, COVALED                  
  Martin Brehm           : Molecular dynamics                            
  Ronald Cardenas        : ETS/NOCV                                      
  Martina Colucci        : COVALED                                       
  Sebastian Ehlert       : rSCAN, r2SCAN, r2SCAN-3c, D4, dhf basis sets  
  Marvin Friede          : D4 for Fr, Ra, Ac-Lr                          
  Lars Goerigk           : TD-DFT with DH, B97 family of functionals     
  Stefan Grimme          : VdW corrections, initial TS optimization, DFT functionals, gCP, sTDA/sTD-DF 
  Waldemar Hujo          : DFT-NL                                        
  H. Jonsson             : NEB                                           
  Holger Kruse           : gCP                                           
  Marcel Mueller         : wB97X-3c, vDZP basis set                      
  Hagen Neugebauer       : wr2SCAN, Native XTB                           
  Gianluca Regni         : ADLD/ADEX                                     
  Tobias Risthaus        : pre 6.0 range-separated hybrid DFT and stability analysis
  Lukas Wittmann         : regularized MP2, r2SCAN double-hybrids, wr2SCAN        
                                                                         
We gratefully acknowledge several colleagues who have allowed us to      
interface, adapt or use parts of their codes:                            
  Ed Valeev, F. Pavosevic, A. Kumar             : LibInt (2-el integral package), F12 methods 
  Garnet Chan, S. Sharma, J. Yang, R. Olivares  : DMRG                   
  Ulf Ekstrom                                   : XCFun DFT Library      
  Mihaly Kallay                                 : mrcc  (arbitrary order and MRCC methods)
  Frank Weinhold                                : gennbo (NPA and NBO analysis)           
  Simon Mueller                                 : openCOSMO-RS                            
  Christopher J. Cramer and Donald G. Truhlar   : smd solvation model                     
  S Lehtola, MJT Oliveira, MAL Marques          : LibXC Library                           
  Liviu Ungur et al                             : ANISO software                          


 Your calculation uses the libint2 library for the computation of 2-el integrals
 For citations please refer to: http://libint.valeyev.net

 Your ORCA version has been built with support for libXC version: 7.0.0
 For citations please refer to: https://libxc.gitlab.io

 This ORCA versions uses:
   CBLAS   interface :  Fast vector & matrix operations
   LAPACKE interface :  Fast linear algebra routines
   SCALAPACK package :  Parallel linear algebra routines
   Shared memory     :  Shared parallel matrices
   BLAS/LAPACK       :  OpenBLAS 0.3.29  USE64BITINT DYNAMIC_ARCH NO_AFFINITY Haswell SINGLE_THREADED
        Core in use  :  Haswell
   Copyright (c) 2011-2014, The OpenBLAS Project


  ***********************************
  * Starting time: Tue Aug  4 20:01:00 2026
  * Host name:     steezy
  * Process ID:    1450351
  * Working dir.:  /home/jannes/chlorophyll-ladder/011-chlorophyll-a-truncation/chlorophyll_a/02_tddft_ch2cl2/m062x
  ***********************************

NOTE: MaxCore=2200 MB was set to SCF,MP2,MDCI,CIPSI,MRCI,RASCI and CIS
      => If you want to overwrite this, your respective input block should be placed after the MaxCore statement


***************************************
The coordinates will be read from file: /home/jannes/chlorophyll-ladder/011-chlorophyll-a-truncation/chlorophyll_a/01_opt/chlorophyll_a_opt_b3lypd4_tzvp.xyz
***************************************


XCFun DFT library Copyright 2009-2010 Ulf Ekstrom and contributors.
See http://admol.org/xcfun for more information.
This is free software; see the source code for copying conditions.
There is ABSOLUTELY NO WARRANTY; not even for MERCHANTABILITY or FITNESS FOR A PARTICULAR PURPOSE.
For details see the documentation.
Scientific users of this library should cite U. Ekstrom, L. Visscher, R. Bast, A. J. Thorvaldsen and K. Ruud;
J.Chem.Theor.Comp. 2010, DOI: 10.1021/ct100117s
XCFun Version 0.99 

================================================================================

----- Orbital basis set information -----
Your calculation utilizes the basis: def2-TZVP
   F. Weigend and R. Ahlrichs, Phys. Chem. Chem. Phys. 7, 3297 (2005).

----- AuxJ basis set information -----
Your calculation utilizes the auxiliary basis: def2/J
   H-Rn: F. Weigend, Phys. Chem. Chem. Phys. 8, 1057 (2006).
   Fr-Lr: K. Eichkorn, F. Weigend, O. Treutler, R. Ahlrichs; Theor. Chem. Acc. 97, 119 (1997).

================================================================================
                                        WARNINGS
                       Please study these warnings very carefully!
================================================================================

WARNING: Functional chosen is sensitive to the integration grid.
         DEFGRID3 seems to be a minimum grid for robust results!

WARNING: CIS/ROCIS methods need fully converged wavefunctions
  ===> : Setting SCFConvForced true
         You can overwrite this default with %scf ConvForced false 


================================================================================
                                       INPUT FILE
================================================================================
NAME = tddft.inp
|  1> %pal nprocs 4 end
|  2> %maxcore 2200
|  3> ! M062X def2-TZVP def2/J RIJCOSX DefGrid3 TightSCF CPCM(CH2Cl2)
|  4> %tddft
|  5>   nroots 30
|  6>   tda false
|  7>   triplets false
|  8> end
|  9> * xyzfile 0 1 /home/jannes/chlorophyll-ladder/011-chlorophyll-a-truncation/chlorophyll_a/01_opt/chlorophyll_a_opt_b3lypd4_tzvp.xyz
| 10> 
| 11>                          ****END OF INPUT****
================================================================================

                       ****************************
                       * Single Point Calculation *
                       ****************************

---------------------------------
CARTESIAN COORDINATES (ANGSTROEM)
---------------------------------
  Mg     6.479325   -0.856669   -0.022650
  C      4.824863    1.926725   -1.189190
  C      3.967350   -1.366492    2.202749
  C      8.090452   -3.624777    1.054701
  C      9.073893   -0.194301   -2.228311
  N      4.645023    0.146951    0.413537
  C      4.144979    1.264153   -0.200884
  C      2.779482    1.623969    0.337808
  C      2.687618    0.748333    1.605681
  C      3.820053   -0.243921    1.407761
  C      2.873454    1.552508    2.896797
  C      1.677792    1.333722   -0.691271
  C      0.306476    1.810696   -0.228119
  C     -0.769972    1.581641   -1.264377
  O     -0.573019    1.401751   -2.440156
  O     -1.993543    1.617502   -0.708764
  N      6.084936   -2.259084    1.368503
  C      5.000951   -2.314628    2.185715
  C      5.080945   -3.478347    3.040170
  C      6.254803   -4.120714    2.718156
  C      6.877407   -3.343460    1.658588
  C      4.047146   -3.889520    4.032602
  C      6.814799   -5.345299    3.260172
  C      6.601048   -5.861764    4.473553
  N      8.263879   -1.751213   -0.508417
  C      8.744574   -2.893584    0.050367
  C     10.021398   -3.234476   -0.531017
  C     10.302273   -2.260841   -1.454599
  C      9.190811   -1.336347   -1.433566
  C     10.839407   -4.431219   -0.173262
  C     11.485972   -2.175745   -2.364258
  C     11.239280   -2.841239   -3.725492
  N      6.899588    0.527206   -1.412075
  C      8.008028    0.699564   -2.234592
  C      7.850223    1.892237   -3.035077
  C      6.619003    2.411007   -2.660494
  C      6.084962    1.545039   -1.675539
  C      8.815929    2.431750   -4.032965
  C      5.678985    3.497729   -2.885831
  O      5.745774    4.461750   -3.609447
  C      4.431100    3.184148   -1.942329
  C      4.160810    4.382677   -1.063901
  O      4.666584    4.584571    0.011802
  O      3.293205    5.221456   -1.651794
  C      3.058682    6.460634   -0.966528
  C     -3.113386    1.451284   -1.623782
  C     -4.362005    1.431486   -0.816231
  C     -5.252522    0.439033   -0.742085
  C     -5.122232   -0.876908   -1.459134
  C     -6.497245    0.598310    0.093188
  C     -7.796788    0.622560   -0.723564
  C     -9.034096    0.770893    0.159777
  C    -10.375291    0.724638   -0.585861
  C    -10.541501    1.919308   -1.528846
  C    -11.531336    0.621411    0.418833
  C    -12.909310    0.375287   -0.193858
  C    -13.991724    0.167605    0.864332
  C    -15.385285   -0.175833    0.319462
  C    -15.969237    0.968854   -0.512490
  C    -16.316509   -0.573723    1.473367
  C    -17.675796   -1.131403    1.053752
  C    -18.502427   -1.617095    2.243453
  C    -19.923295   -2.085978    1.904308
  C    -19.929498   -3.294126    0.964709
  C    -20.704004   -2.397334    3.182676
  H      3.190515   -1.521317    2.939485
  H      8.607171   -4.507497    1.404701
  H      9.891945    0.014024   -2.905384
  H      2.748165    2.684594    0.599789
  H      1.733111    0.219047    1.655257
  H      2.062261    2.273792    3.017986
  H      2.883328    0.900103    3.771261
  H      3.815653    2.103920    2.874006
  H      1.913775    1.814778   -1.639835
  H      1.648464    0.259798   -0.896643
  H     -0.003903    1.336742    0.704449
  H      0.330300    2.887549   -0.025835
  H      3.058327   -3.526022    3.751709
  H      3.996583   -4.976686    4.111851
  H      4.264312   -3.502080    5.033330
  H      7.484895   -5.885268    2.598214
  H      7.069801   -6.791697    4.767681
  H      5.984543   -5.373487    5.215213
  H     10.347404   -5.360236   -0.476157
  H     11.813753   -4.405867   -0.660908
  H     11.011159   -4.494374    0.904323
  H     11.762268   -1.129283   -2.517881
  H     12.348967   -2.644684   -1.885420
  H     12.117450   -2.754751   -4.369153
  H     11.010005   -3.901451   -3.602441
  H     10.393547   -2.378779   -4.237777
  H      9.046517    1.692599   -4.804780
  H      8.408763    3.317443   -4.517755
  H      9.762030    2.708615   -3.559300
  H      3.575461    3.043390   -2.605848
  H      2.644615    6.277495    0.024917
  H      3.988817    7.019046   -0.866671
  H      2.350264    7.005887   -1.584013
  H     -3.098953    2.293165   -2.320868
  H     -2.956563    0.545577   -2.204288
  H     -4.551145    2.336338   -0.245550
  H     -5.365305   -1.699154   -0.780373
  H     -5.824891   -0.942756   -2.294440
  H     -4.124269   -1.051942   -1.855134
  H     -6.550710   -0.229670    0.811016
  H     -6.427548    1.518531    0.678869
  H     -7.737859    1.442187   -1.444423
  H     -7.887166   -0.298839   -1.307267
  H     -9.023506   -0.030802    0.906579
  H     -8.970541    1.710227    0.722975
  H    -10.383921   -0.190715   -1.193364
  H     -9.727231    1.978854   -2.251927
  H    -11.471821    1.859981   -2.094507
  H    -10.554337    2.855782   -0.962340
  H    -11.309579   -0.193066    1.117345
  H    -11.561704    1.537014    1.022768
  H    -13.180529    1.212765   -0.839680
  H    -12.863352   -0.509414   -0.840706
  H    -13.673828   -0.638839    1.534600
  H    -14.066240    1.066786    1.488662
  H    -15.277549   -1.051461   -0.335040
  H    -16.089775    1.865908    0.103209
  H    -15.325326    1.227446   -1.353899
  H    -16.946989    0.712178   -0.921565
  H    -15.806139   -1.325840    2.085383
  H    -16.465885    0.295441    2.126078
  H    -18.246763   -0.368448    0.515482
  H    -17.517605   -1.952001    0.346725
  H    -17.970725   -2.434459    2.747015
  H    -18.570278   -0.805635    2.976887
  H    -20.431609   -1.258631    1.392579
  H    -19.395621   -4.136477    1.415694
  H    -20.950711   -3.622167    0.757624
  H    -19.454561   -3.072425    0.007986
  H    -20.739492   -1.531625    3.848253
  H    -21.731896   -2.691756    2.958809
  H    -20.235584   -3.219747    3.731699

----------------------------
CARTESIAN COORDINATES (A.U.)
----------------------------
  NO LB      ZA    FRAG     MASS         X           Y           Z
   0 Mg   12.0000    0    24.305   12.244150   -1.618869   -0.042803
   1 C     6.0000    0    12.011    9.117669    3.640983   -2.247243
   2 C     6.0000    0    12.011    7.497204   -2.582295    4.162593
   3 C     6.0000    0    12.011   15.288738   -6.849835    1.993097
   4 C     6.0000    0    12.011   17.147172   -0.367176   -4.210897
   5 N     7.0000    0    14.007    8.777822    0.277697    0.781471
   6 C     6.0000    0    12.011    7.832875    2.388903   -0.379616
   7 C     6.0000    0    12.011    5.252461    3.068858    0.638365
   8 C     6.0000    0    12.011    5.078862    1.414145    3.034297
   9 C     6.0000    0    12.011    7.218854   -0.460944    2.660282
  10 C     6.0000    0    12.011    5.430041    2.933815    5.474153
  11 C     6.0000    0    12.011    3.170567    2.520369   -1.306312
  12 C     6.0000    0    12.011    0.579156    3.421719   -0.431082
  13 C     6.0000    0    12.011   -1.455036    2.988869   -2.389325
  14 O     8.0000    0    15.999   -1.082848    2.648926   -4.611227
  15 O     8.0000    0    15.999   -3.767251    3.056636   -1.339370
  16 N     7.0000    0    14.007   11.498863   -4.269049    2.586097
  17 C     6.0000    0    12.011    9.450427   -4.374014    4.130402
  18 C     6.0000    0    12.011    9.601594   -6.573122    5.745089
  19 C     6.0000    0    12.011   11.819864   -7.787021    5.136570
  20 C     6.0000    0    12.011   12.996415   -6.318224    3.134277
  21 C     6.0000    0    12.011    7.647997   -7.350127    7.620513
  22 C     6.0000    0    12.011   12.878104  -10.101152    6.160832
  23 C     6.0000    0    12.011   12.474174  -11.077129    8.453789
  24 N     7.0000    0    14.007   15.616467   -3.309313   -0.960768
  25 C     6.0000    0    12.011   16.524849   -5.468082    0.095180
  26 C     6.0000    0    12.011   18.937698   -6.112274   -1.003476
  27 C     6.0000    0    12.011   19.468475   -4.272369   -2.748794
  28 C     6.0000    0    12.011   17.368116   -2.525330   -2.709047
  29 C     6.0000    0    12.011   20.483510   -8.373791   -0.327418
  30 C     6.0000    0    12.011   21.705342   -4.111562   -4.467801
  31 C     6.0000    0    12.011   21.239160   -5.369163   -7.040160
  32 N     7.0000    0    14.007   13.038331    0.996275   -2.668435
  33 C     6.0000    0    12.011   15.132980    1.321984   -4.222767
  34 C     6.0000    0    12.011   14.834772    3.575810   -5.735464
  35 C     6.0000    0    12.011   12.508103    4.556144   -5.027605
  36 C     6.0000    0    12.011   11.498912    2.919701   -3.166309
  37 C     6.0000    0    12.011   16.659691    4.595341   -7.621199
  38 C     6.0000    0    12.011   10.731727    6.609750   -5.453431
  39 O     8.0000    0    15.999   10.857938    8.431486   -6.820866
  40 C     6.0000    0    12.011    8.373566    6.017167   -3.670469
  41 C     6.0000    0    12.011    7.862792    8.282060   -2.010482
  42 O     8.0000    0    15.999    8.818566    8.663584    0.022303
  43 O     8.0000    0    15.999    6.223255    9.867122   -3.121439
  44 C     6.0000    0    12.011    5.780071   12.208830   -1.826473
  45 C     6.0000    0    12.011   -5.883447    2.742529   -3.068504
  46 C     6.0000    0    12.011   -8.242995    2.705116   -1.542453
  47 C     6.0000    0    12.011   -9.925828    0.829652   -1.402337
  48 C     6.0000    0    12.011   -9.679615   -1.657115   -2.757363
  49 C     6.0000    0    12.011  -12.278014    1.130642    0.176100
  50 C     6.0000    0    12.011  -14.733793    1.176469   -1.367338
  51 C     6.0000    0    12.011  -17.071967    1.456776    0.301934
  52 C     6.0000    0    12.011  -19.606458    1.369367   -1.107117
  53 C     6.0000    0    12.011  -19.920549    3.626967   -2.889100
  54 C     6.0000    0    12.011  -21.791068    1.174296    0.791479
  55 C     6.0000    0    12.011  -24.395060    0.709190   -0.366339
  56 C     6.0000    0    12.011  -26.440526    0.316728    1.633351
  57 C     6.0000    0    12.011  -29.073976   -0.332276    0.603695
  58 C     6.0000    0    12.011  -30.177484    1.830869   -0.968466
  59 C     6.0000    0    12.011  -30.833733   -1.084180    2.784260
  60 C     6.0000    0    12.011  -33.402414   -2.138041    1.991302
  61 C     6.0000    0    12.011  -34.964519   -3.055867    4.239511
  62 C     6.0000    0    12.011  -37.649571   -3.941927    3.598621
  63 C     6.0000    0    12.011  -37.661293   -6.224995    1.823035
  64 C     6.0000    0    12.011  -39.124897   -4.530305    6.014386
  65 H     1.0000    0     1.008    6.029200   -2.874872    5.554822
  66 H     1.0000    0     1.008   16.265196   -8.517935    2.654501
  67 H     1.0000    0     1.008   18.693067    0.026501   -5.490380
  68 H     1.0000    0     1.008    5.193278    5.073147    1.133438
  69 H     1.0000    0     1.008    3.275105    0.413939    3.127982
  70 H     1.0000    0     1.008    3.897109    4.296844    5.703167
  71 H     1.0000    0     1.008    5.448700    1.700949    7.126651
  72 H     1.0000    0     1.008    7.210540    3.975833    5.431084
  73 H     1.0000    0     1.008    3.616510    3.429433   -3.098840
  74 H     1.0000    0     1.008    3.115145    0.490947   -1.694410
  75 H     1.0000    0     1.008   -0.007376    2.526076    1.331217
  76 H     1.0000    0     1.008    0.624176    5.456676   -0.048821
  77 H     1.0000    0     1.008    5.779400   -6.663215    7.089702
  78 H     1.0000    0     1.008    7.552448   -9.404573    7.770273
  79 H     1.0000    0     1.008    8.058383   -6.617973    9.511615
  80 H     1.0000    0     1.008   14.144402  -11.121544    4.909912
  81 H     1.0000    0     1.008   13.359987  -12.834447    9.009612
  82 H     1.0000    0     1.008   11.309148  -10.154420    9.855325
  83 H     1.0000    0     1.008   19.553759  -10.129378   -0.899807
  84 H     1.0000    0     1.008   22.324758   -8.325883   -1.248936
  85 H     1.0000    0     1.008   20.808074   -8.493136    1.708924
  86 H     1.0000    0     1.008   22.227464   -2.134035   -4.758106
  87 H     1.0000    0     1.008   23.336165   -4.997728   -3.562927
  88 H     1.0000    0     1.008   22.898661   -5.205725   -8.256502
  89 H     1.0000    0     1.008   20.805894   -7.372674   -6.807627
  90 H     1.0000    0     1.008   19.640957   -4.495241   -8.008238
  91 H     1.0000    0     1.008   17.095439    3.198548   -9.079718
  92 H     1.0000    0     1.008   15.890260    6.269060   -8.537319
  93 H     1.0000    0     1.008   18.447564    5.118540   -6.726102
  94 H     1.0000    0     1.008    6.756642    5.751174   -4.924338
  95 H     1.0000    0     1.008    4.997597   11.862746    0.047086
  96 H     1.0000    0     1.008    7.537771   13.264075   -1.637771
  97 H     1.0000    0     1.008    4.441355   13.239207   -2.993351
  98 H     1.0000    0     1.008   -5.856172    4.333454   -4.385805
  99 H     1.0000    0     1.008   -5.587094    1.030991   -4.165501
 100 H     1.0000    0     1.008   -8.600417    4.415039   -0.464021
 101 H     1.0000    0     1.008  -10.138957   -3.210935   -1.474691
 102 H     1.0000    0     1.008  -11.007449   -1.781551   -4.335864
 103 H     1.0000    0     1.008   -7.793738   -1.987882   -3.505696
 104 H     1.0000    0     1.008  -12.379049   -0.434014    1.532598
 105 H     1.0000    0     1.008  -12.146305    2.869607    1.282877
 106 H     1.0000    0     1.008  -14.622434    2.725339   -2.729564
 107 H     1.0000    0     1.008  -14.904583   -0.564724   -2.470377
 108 H     1.0000    0     1.008  -17.051954   -0.058208    1.713187
 109 H     1.0000    0     1.008  -16.951865    3.231861    1.366225
 110 H     1.0000    0     1.008  -19.622766   -0.360399   -2.255131
 111 H     1.0000    0     1.008  -18.381802    3.739491   -4.255525
 112 H     1.0000    0     1.008  -21.678599    3.514854   -3.958045
 113 H     1.0000    0     1.008  -19.944806    5.396646   -1.818560
 114 H     1.0000    0     1.008  -21.372008   -0.364841    2.111477
 115 H     1.0000    0     1.008  -21.848454    2.904536    1.932752
 116 H     1.0000    0     1.008  -24.907590    2.291794   -1.586766
 117 H     1.0000    0     1.008  -24.308212   -0.962653   -1.588704
 118 H     1.0000    0     1.008  -25.839790   -1.207231    2.899973
 119 H     1.0000    0     1.008  -26.581341    2.015933    2.813163
 120 H     1.0000    0     1.008  -28.870383   -1.986973   -0.633133
 121 H     1.0000    0     1.008  -30.405269    3.526055    0.195036
 122 H     1.0000    0     1.008  -28.960670    2.319536   -2.558499
 123 H     1.0000    0     1.008  -32.025168    1.345821   -1.741506
 124 H     1.0000    0     1.008  -29.869274   -2.505475    3.940802
 125 H     1.0000    0     1.008  -31.116014    0.558302    4.017705
 126 H     1.0000    0     1.008  -34.481386   -0.696266    0.974119
 127 H     1.0000    0     1.008  -33.103476   -3.688748    0.655216
 128 H     1.0000    0     1.008  -33.959749   -4.600460    5.191106
 129 H     1.0000    0     1.008  -35.092740   -1.522429    5.625502
 130 H     1.0000    0     1.008  -38.610145   -2.378468    2.631593
 131 H     1.0000    0     1.008  -36.652413   -7.816809    2.675273
 132 H     1.0000    0     1.008  -39.591106   -6.844903    1.431702
 133 H     1.0000    0     1.008  -36.763792   -5.806042    0.015092
 134 H     1.0000    0     1.008  -39.191961   -2.894351    7.272145
 135 H     1.0000    0     1.008  -41.067332   -5.086682    5.591338
 136 H     1.0000    0     1.008  -38.239712   -6.084441    7.051889

--------------------------------
INTERNAL COORDINATES (ANGSTROEM)
--------------------------------
 Mg     0   0   0     0.000000000000     0.00000000     0.00000000
 C      1   0   0     3.441706040795     0.00000000     0.00000000
 C      1   2   0     3.394457668888    89.30889667     0.00000000
 C      1   2   3     3.379177049487   178.68175990   112.27289249
 C      1   2   3     3.469214613735    89.40493490   182.29922912
 N      1   2   3     2.135924835471    43.64663978     0.72297241
 C      6   1   2     1.369561443797   127.24560283     1.16512150
 C      7   6   1     1.511369369791   111.35686998   176.67956037
 C      8   7   6     1.543592769906   102.20898485    13.11530211
 C      6   1   2     1.349754485386   122.63215241   183.37318882
 C      9   8   7     1.532388190848   112.77664995   105.03734026
 C      8   7   6     1.535242429099   111.37164823   251.45860928
 C     12   8   7     1.523982230910   112.50920958   185.52321196
 C     13  12   8     1.511633612473   112.64445898   177.46814922
 O     14  13  12     1.205657098788   125.08662567   340.38500786
 O     14  13  12     1.344291055565   111.14830867   161.04362100
 N      1   2   3     2.014353277146   134.66866264     1.99036412
 C     17   1   2     1.358654949213   126.87482816   357.69144692
 C     18  17   1     1.445936755180   110.13316003   179.72837459
 C     19  18  17     1.376325521682   106.53231770     0.37739225
 C     17   1   2     1.374056403486   125.61365444   177.59506666
 C     19  18  17     1.490880187271   125.23758309   182.18112390
 C     20  19  18     1.451546231965   129.45157536   180.80476837
 C     23  20  19     1.335933264052   127.12610259   333.72833071
 N      1   2   3     2.054461113194   133.59421682   180.89498556
 C     25   1   2     1.359529079887   125.15624580   181.97463487
 C     26  25   1     1.443777996460   110.21707011   179.85213705
 C     27  26  25     1.371080601320   106.54412342     0.26046554
 C     25   1   2     1.373760941850   127.86735246     1.97620977
 C     27  26  25     1.493090831842   125.25889970   180.66305093
 C     28  27  26     1.495280324903   127.76173296   182.26827086
 C     31  28  27     1.535153770543   112.80223231    91.51067135
 N      1   2   3     2.005550035663    46.20171862   182.09124075
 C     33   1   2     1.391000182885   131.46322253   178.53647119
 C     34  33   1     1.445042403301   110.04801695   182.27813617
 C     35  34  33     1.387565357793   104.82885546   359.88862450
 C     33   1   2     1.330042104720   122.47532434     0.94304293
 C     35  34  33     1.489778941651   126.80960458   179.58057088
 C     36  35  34     1.454432847022   144.19495672   179.56518189
 O     39  36  35     1.207235199980   130.82562105   358.58789359
 C      2   1   3     1.517688754903   164.35575665   177.50215655
 C     41   2   1     1.510352210713   114.53659303   237.78801913
 O     42  41   2     1.205696981445   125.21920743    28.62695551
 O     42  41   2     1.342351819838   110.90379824   207.38963558
 C     44  42  41     1.435323425278   115.84767491   185.77235653
 C     16  14  13     1.455656177894   115.93602451   178.09424862
 C     46  16  14     1.487138224139   107.82408391   176.39128295
 C     47  46  16     1.335469914406   126.86357787   240.13166419
 C     48  47  46     1.504271866507   124.46393816     1.53589320
 C     48  47  46     1.507443692477   120.18853641   182.08211459
 C     50  48  47     1.535083602003   113.94616119   113.82673898
 C     51  50  48     1.527489747424   112.30801206   179.41735962
 C     52  51  50     1.535225844420   115.07823818   183.22502876
 C     53  52  51     1.531039827228   111.74457360   294.54639931
 C     53  52  51     1.535091596965   110.00198802   169.55329475
 C     55  53  52     1.527998016085   115.31140995   188.00077823
 C     56  55  53     1.527912952873   112.52332946   175.22595773
 C     57  56  55     1.535202868777   115.31959895   183.81369614
 C     58  57  56     1.530833790524   111.83105398   295.92296269
 C     58  57  56     1.535249455416   109.98772544   171.11282683
 C     60  58  57     1.527987534656   115.32662168   188.36114646
 C     61  60  58     1.527940721061   112.54865178   175.09142631
 C     62  61  60     1.534189181039   115.21877166   175.32659430
 C     63  62  61     1.530525094603   112.37773016    62.43618717
 C     63  62  61     1.529925696594   110.49264646   186.37032651
 H      3   1   2     1.081768203352   178.03369337   246.95217603
 H      4   1  33     1.081061552948   179.67226140   109.10243791
 H      5   1   2     1.082144705435   179.25352134   117.53697296
 H      8   7   6     1.092949382779   110.02050629   130.63440572
 H      9   8   7     1.092559231141   111.35078720   227.65559267
 H     11   9   8     1.092231799297   110.48570164    64.28463475
 H     11   9   8     1.091062415020   111.25922898   184.51660560
 H     11   9   8     1.091931483368   110.61375920   304.69831410
 H     12   8   7     1.089439052268   110.16398147   307.03693870
 H     12   8   7     1.093778005785   109.31283122    63.14696688
 H     13  12   8     1.091169615291   112.31783307   300.36521265
 H     13  12   8     1.095946293867   110.12438865    58.22254394
 H     22  19  18     1.090318771361   111.43379415    26.30205799
 H     22  19  18     1.091222824261   110.80820574   146.57513737
 H     22  19  18     1.094864437862   111.91932658   266.14699076
 H     23  20  19     1.085717523549   115.46876553   154.25467552
 H     24  23  20     1.082135009911   120.64931197   179.51173494
 H     24  23  20     1.080996271574   122.66867946   357.82047717
 H     30  27  26     1.094022112369   111.58670526    66.88218537
 H     30  27  26     1.089859196202   111.34243960   186.78889270
 H     30  27  26     1.093013379468   111.63089619   307.03601772
 H     31  28  27     1.093170603854   109.87990608   213.77447853
 H     31  28  27     1.092680173599   109.52404781   329.62305820
 H     32  31  28     1.092227748472   111.03983592   179.49665320
 H     32  31  28     1.091676704330   110.78182354   299.74471277
 H     32  31  28     1.091589792214   110.91481554    59.11175549
 H     38  35  34     1.093258028841   111.39260199    56.76947194
 H     38  35  34     1.088695886091   110.51508040   177.25242932
 H     38  35  34     1.093673054236   111.24366744   297.32442143
 H     41   2   1     1.091873915343   113.45746400   112.60821853
 H     45  44  42     1.089933170437   110.56657729   299.19395487
 H     45  44  42     1.089470081645   110.29001910    59.93697327
 H     45  44  42     1.086482723818   105.57310553   179.41657570
 H     46  16  14     1.093115037183   107.62327232   296.87668026
 H     46  16  14     1.087145972860   108.65137100    52.88918616
 H     47  46  16     1.086374065722   114.85632311    60.90451933
 H     49  48  47     1.093567218463   110.03786682   134.98372840
 H     49  48  47     1.093528000528   111.17010710   252.87050003
 H     49  48  47     1.087834694435   113.18723214    14.06021615
 H     50  48  47     1.097126796743   108.84654230   235.16917089
 H     50  48  47     1.093016894838   109.46381553   351.48176087
 H     51  50  48     1.093114422312   108.48613637   302.00526767
 H     51  50  48     1.094465335836   109.89914245    58.07575953
 H     52  51  50     1.095692216140   108.37733942   304.87809236
 H     52  51  50     1.097078674144   109.45671986    60.08109449
 H     53  52  51     1.098637861798   107.48942116    52.84898143
 H     54  53  52     1.090608876419   111.70967107    57.08510038
 H     54  53  52     1.090407370954   111.69577010   177.17336907
 H     54  53  52     1.094566644565   110.49338561   297.11876573
 H     55  53  52     1.095658562815   108.34990725   309.86932652
 H     55  53  52     1.097265044317   108.96307873    64.72478856
 H     56  55  53     1.091794636498   109.73417016   297.73589370
 H     56  55  53     1.096913744516   109.18287149    53.84271799
 H     57  56  55     1.095750304412   108.55144520   305.63648243
 H     57  56  55     1.097208356789   109.31761477    60.77270626
 H     58  57  56     1.098500218252   107.50312798    54.35411304
 H     59  58  57     1.094678352166   110.43194757   298.33047336
 H     59  58  57     1.090623405738   111.79940661    58.27252283
 H     59  58  57     1.090515402222   111.70819168   178.41048480
 H     60  58  57     1.095774012612   108.37083783   310.16084563
 H     60  58  57     1.097173987975   108.92946885    65.00155316
 H     61  60  58     1.094457998821   110.16503112   296.70845958
 H     61  60  58     1.094665633427   108.80902643    52.84696571
 H     62  61  60     1.097435554605   109.38484606   298.25766262
 H     62  61  60     1.095900648595   108.61617800    53.43777342
 H     63  62  61     1.097612540539   107.55338088   303.85862343
 H     64  63  62     1.094516853070   110.64487396    59.29474490
 H     64  63  62     1.092415493238   110.92854484   178.68358653
 H     64  63  62     1.090886604273   112.09956099   298.94774306
 H     65  63  62     1.092568370600   111.36705533    57.06330813
 H     65  63  62     1.092411933628   111.33184149   177.57061750
 H     65  63  62     1.094169259873   110.71834319   297.27783005

---------------------------
INTERNAL COORDINATES (A.U.)
---------------------------
 Mg     0   0   0     0.000000000000     0.00000000     0.00000000
 C      1   0   0     6.503881850565     0.00000000     0.00000000
 C      1   2   0     6.414595367388    89.30889667     0.00000000
 C      1   2   3     6.385719181563   178.68175990   112.27289249
 C      1   2   3     6.555865519757    89.40493490   182.29922912
 N      1   2   3     4.036312981681    43.64663978     0.72297241
 C      6   1   2     2.588096052353   127.24560283     1.16512150
 C      7   6   1     2.856074196101   111.35686998   176.67956037
 C      8   7   6     2.916967597424   102.20898485    13.11530211
 C      6   1   2     2.550666325412   122.63215241   183.37318882
 C      9   8   7     2.895794011557   112.77664995   105.03734026
 C      8   7   6     2.901187740173   111.37164823   251.45860928
 C     12   8   7     2.879909049382   112.50920958   185.52321196
 C     13  12   8     2.856573542404   112.64445898   177.46814922
 O     14  13  12     2.278361728128   125.08662567   340.38500786
 O     14  13  12     2.540341939297   111.14830867   161.04362100
 N      1   2   3     3.806576030773   134.66866264     1.99036412
 C     17   1   2     2.567485764510   126.87482816   357.69144692
 C     18  17   1     2.732424474260   110.13316003   179.72837459
 C     19  18  17     2.600878307106   106.53231770     0.37739225
 C     17   1   2     2.596590295149   125.61365444   177.59506666
 C     19  18  17     2.817355252431   125.23758309   182.18112390
 C     20  19  18     2.743024849138   129.45157536   180.80476837
 C     23  20  19     2.524548002254   127.12610259   333.72833071
 N      1   2   3     3.882368856727   133.59421682   180.89498556
 C     25   1   2     2.569137632088   125.15624580   181.97463487
 C     26  25   1     2.728345011491   110.21707011   179.85213705
 C     27  26  25     2.590966844026   106.54412342     0.26046554
 C     25   1   2     2.596031953574   127.86735246     1.97620977
 C     27  26  25     2.821532765249   125.25889970   180.66305093
 C     28  27  26     2.825670307508   127.76173296   182.26827086
 C     31  28  27     2.901020199782   112.80223231    91.51067135
 N      1   2   3     3.789940315278    46.20171862   182.09124075
 C     33   1   2     2.628609397886   131.46322253   178.53647119
 C     34  33   1     2.730734394142   110.04801695   182.27813617
 C     35  34  33     2.622118519145   104.82885546   359.88862450
 C     33   1   2     2.513415324504   122.47532434     0.94304293
 C     35  34  33     2.815274199803   126.80960458   179.58057088
 C     36  35  34     2.748479761051   144.19495672   179.56518189
 O     39  36  35     2.281343907192   130.82562105   358.58789359
 C      2   1   3     2.868016103299   164.35575665   177.50215655
 C     41   2   1     2.854152044011   114.53659303   237.78801913
 O     42  41   2     2.278437095426   125.21920743    28.62695551
 O     42  41   2     2.536677314864   110.90379824   207.38963558
 C     44  42  41     2.712368187377   115.84767491   185.77235653
 C     16  14  13     2.750791521371   115.93602451   178.09424862
 C     46  16  14     2.810283966908   107.82408391   176.39128295
 C     47  46  16     2.523672398318   126.86357787   240.13166419
 C     48  47  46     2.842661858662   124.46393816     1.53589320
 C     48  47  46     2.848655741088   120.18853641   182.08211459
 C     50  48  47     2.900887600459   113.94616119   113.82673898
 C     51  50  48     2.886537295005   112.30801206   179.41735962
 C     52  51  50     2.901156399672   115.07823818   183.22502876
 C     53  52  51     2.893245973588   111.74457360   294.54639931
 C     53  52  51     2.900902708747   110.00198802   169.55329475
 C     55  53  52     2.887497783577   115.31140995   188.00077823
 C     56  55  53     2.887337037401   112.52332946   175.22595773
 C     57  56  55     2.901112981998   115.31959895   183.81369614
 C     58  57  56     2.892856620643   111.83105398   295.92296269
 C     58  57  56     2.901201017988   109.98772544   171.11282683
 C     60  58  57     2.887477976544   115.32662168   188.36114646
 C     61  60  58     2.887389511672   112.54865178   175.09142631
 C     62  61  60     2.899197389790   115.21877166   175.32659430
 C     63  62  61     2.892273269893   112.37773016    62.43618717
 C     63  62  61     2.891140571812   110.49264646   186.37032651
 H      3   1   2     2.044245644720   178.03369337   246.95217603
 H      4   1  33     2.042910268983   179.67226140   109.10243791
 H      5   1   2     2.044957130545   179.25352134   117.53697296
 H      8   7   6     2.065375011691   110.02050629   130.63440572
 H      9   8   7     2.064637731945   111.35078720   227.65559267
 H     11   9   8     2.064018975432   110.48570164    64.28463475
 H     11   9   8     2.061809159403   111.25922898   184.51660560
 H     11   9   8     2.063451460571   110.61375920   304.69831410
 H     12   8   7     2.058741448386   110.16398147   307.03693870
 H     12   8   7     2.066940882240   109.31283122    63.14696688
 H     13  12   8     2.062011738556   112.31783307   300.36521265
 H     13  12   8     2.071038352894   110.12438865    58.22254394
 H     22  19  18     2.060403876546   111.43379415    26.30205799
 H     22  19  18     2.062112288937   110.80820574   146.57513737
 H     22  19  18     2.068993941328   111.91932658   266.14699076
 H     23  20  19     2.051708778307   115.46876553   154.25467552
 H     24  23  20     2.044938808660   120.64931197   179.51173494
 H     24  23  20     2.042786905064   122.66867946   357.82047717
 H     30  27  26     2.067402176831   111.58670526    66.88218537
 H     30  27  26     2.059535405358   111.34243960   186.78889270
 H     30  27  26     2.065495947906   111.63089619   307.03601772
 H     31  28  27     2.065793058937   109.87990608   213.77447853
 H     31  28  27     2.064866280067   109.52404781   329.62305820
 H     32  31  28     2.064011320482   111.03983592   179.49665320
 H     32  31  28     2.062969997966   110.78182354   299.74471277
 H     32  31  28     2.062805757869   110.91481554    59.11175549
 H     38  35  34     2.065958268220   111.39260199    56.76947194
 H     38  35  34     2.057337067839   110.51508040   177.25242932
 H     38  35  34     2.066742552556   111.24366744   297.32442143
 H     41   2   1     2.063342672771   113.45746400   112.60821853
 H     45  44  42     2.059675196402   110.56657729   299.19395487
 H     45  44  42     2.058800085410   110.29001910    59.93697327
 H     45  44  42     2.053154797254   105.57310553   179.41657570
 H     46  16  14     2.065688053147   107.62327232   296.87668026
 H     46  16  14     2.054408156300   108.65137100    52.88918616
 H     47  46  16     2.052949463210   114.85632311    60.90451933
 H     49  48  47     2.066542551928   110.03786682   134.98372840
 H     49  48  47     2.066468440772   111.17010710   252.87050003
 H     49  48  47     2.055709651459   113.18723214    14.06021615
 H     50  48  47     2.073269180030   108.84654230   235.16917089
 H     50  48  47     2.065502590993   109.46381553   351.48176087
 H     51  50  48     2.065686891209   108.48613637   302.00526767
 H     51  50  48     2.068239747800   109.89914245    58.07575953
 H     52  51  50     2.070558215575   108.37733942   304.87809236
 H     52  51  50     2.073178241497   109.45671986    60.08109449
 H     53  52  51     2.076124679155   107.48942116    52.84898143
 H     54  53  52     2.060952095656   111.70967107    57.08510038
 H     54  53  52     2.060571305511   111.69577010   177.17336907
 H     54  53  52     2.068431193553   110.49338561   297.11876573
 H     55  53  52     2.070494620007   108.34990725   309.86932652
 H     55  53  52     2.073530430084   108.96307873    64.72478856
 H     56  55  53     2.063192857464   109.73417016   297.73589370
 H     56  55  53     2.072866569669   109.18287149    53.84271799
 H     57  56  55     2.070667986500   108.55144520   305.63648243
 H     57  56  55     2.073423306182   109.31761477    60.77270626
 H     58  57  56     2.075864570548   107.50312798    54.35411304
 H     59  58  57     2.068642290326   110.43194757   298.33047336
 H     59  58  57     2.060979552090   111.79940661    58.27252283
 H     59  58  57     2.060775455023   111.70819168   178.41048480
 H     60  58  57     2.070712788505   108.37083783   310.16084563
 H     60  58  57     2.073358358534   108.92946885    65.00155316
 H     61  60  58     2.068225882851   110.16503112   296.70845958
 H     61  60  58     2.068618255392   108.80902643    52.84696571
 H     62  61  60     2.073852647832   109.38484606   298.25766262
 H     62  61  60     2.070952095832   108.61617800    53.43777342
 H     63  62  61     2.074187102777   107.55338088   303.85862343
 H     64  63  62     2.068337101264   110.64487396    59.29474490
 H     64  63  62     2.064366106672   110.92854484   178.68358653
 H     64  63  62     2.061476925239   112.09956099   298.94774306
 H     65  63  62     2.064655003018   111.36705533    57.06330813
 H     65  63  62     2.064359379984   111.33184149   177.57061750
 H     65  63  62     2.067680245315   110.71834319   297.27783005

---------------------
BASIS SET INFORMATION
---------------------
There are 5 groups of distinct atoms

 Group   1 Type Mg  : 14s8p3d contracted to 5s4p3d pattern {73211/5111/111}
 Group   2 Type C   : 11s6p2d1f contracted to 5s3p2d1f pattern {62111/411/11/1}
 Group   3 Type N   : 11s6p2d1f contracted to 5s3p2d1f pattern {62111/411/11/1}
 Group   4 Type O   : 11s6p2d1f contracted to 5s3p2d1f pattern {62111/411/11/1}
 Group   5 Type H   : 5s1p contracted to 3s1p pattern {311/1}

Atom   0Mg   basis set group =>   1
Atom   1C    basis set group =>   2
Atom   2C    basis set group =>   2
Atom   3C    basis set group =>   2
Atom   4C    basis set group =>   2
Atom   5N    basis set group =>   3
Atom   6C    basis set group =>   2
Atom   7C    basis set group =>   2
Atom   8C    basis set group =>   2
Atom   9C    basis set group =>   2
Atom  10C    basis set group =>   2
Atom  11C    basis set group =>   2
Atom  12C    basis set group =>   2
Atom  13C    basis set group =>   2
Atom  14O    basis set group =>   4
Atom  15O    basis set group =>   4
Atom  16N    basis set group =>   3
Atom  17C    basis set group =>   2
Atom  18C    basis set group =>   2
Atom  19C    basis set group =>   2
Atom  20C    basis set group =>   2
Atom  21C    basis set group =>   2
Atom  22C    basis set group =>   2
Atom  23C    basis set group =>   2
Atom  24N    basis set group =>   3
Atom  25C    basis set group =>   2
Atom  26C    basis set group =>   2
Atom  27C    basis set group =>   2
Atom  28C    basis set group =>   2
Atom  29C    basis set group =>   2
Atom  30C    basis set group =>   2
Atom  31C    basis set group =>   2
Atom  32N    basis set group =>   3
Atom  33C    basis set group =>   2
Atom  34C    basis set group =>   2
Atom  35C    basis set group =>   2
Atom  36C    basis set group =>   2
Atom  37C    basis set group =>   2
Atom  38C    basis set group =>   2
Atom  39O    basis set group =>   4
Atom  40C    basis set group =>   2
Atom  41C    basis set group =>   2
Atom  42O    basis set group =>   4
Atom  43O    basis set group =>   4
Atom  44C    basis set group =>   2
Atom  45C    basis set group =>   2
Atom  46C    basis set group =>   2
Atom  47C    basis set group =>   2
Atom  48C    basis set group =>   2
Atom  49C    basis set group =>   2
Atom  50C    basis set group =>   2
Atom  51C    basis set group =>   2
Atom  52C    basis set group =>   2
Atom  53C    basis set group =>   2
Atom  54C    basis set group =>   2
Atom  55C    basis set group =>   2
Atom  56C    basis set group =>   2
Atom  57C    basis set group =>   2
Atom  58C    basis set group =>   2
Atom  59C    basis set group =>   2
Atom  60C    basis set group =>   2
Atom  61C    basis set group =>   2
Atom  62C    basis set group =>   2
Atom  63C    basis set group =>   2
Atom  64C    basis set group =>   2
Atom  65H    basis set group =>   5
Atom  66H    basis set group =>   5
Atom  67H    basis set group =>   5
Atom  68H    basis set group =>   5
Atom  69H    basis set group =>   5
Atom  70H    basis set group =>   5
Atom  71H    basis set group =>   5
Atom  72H    basis set group =>   5
Atom  73H    basis set group =>   5
Atom  74H    basis set group =>   5
Atom  75H    basis set group =>   5
Atom  76H    basis set group =>   5
Atom  77H    basis set group =>   5
Atom  78H    basis set group =>   5
Atom  79H    basis set group =>   5
Atom  80H    basis set group =>   5
Atom  81H    basis set group =>   5
Atom  82H    basis set group =>   5
Atom  83H    basis set group =>   5
Atom  84H    basis set group =>   5
Atom  85H    basis set group =>   5
Atom  86H    basis set group =>   5
Atom  87H    basis set group =>   5
Atom  88H    basis set group =>   5
Atom  89H    basis set group =>   5
Atom  90H    basis set group =>   5
Atom  91H    basis set group =>   5
Atom  92H    basis set group =>   5
Atom  93H    basis set group =>   5
Atom  94H    basis set group =>   5
Atom  95H    basis set group =>   5
Atom  96H    basis set group =>   5
Atom  97H    basis set group =>   5
Atom  98H    basis set group =>   5
Atom  99H    basis set group =>   5
Atom 100H    basis set group =>   5
Atom 101H    basis set group =>   5
Atom 102H    basis set group =>   5
Atom 103H    basis set group =>   5
Atom 104H    basis set group =>   5
Atom 105H    basis set group =>   5
Atom 106H    basis set group =>   5
Atom 107H    basis set group =>   5
Atom 108H    basis set group =>   5
Atom 109H    basis set group =>   5
Atom 110H    basis set group =>   5
Atom 111H    basis set group =>   5
Atom 112H    basis set group =>   5
Atom 113H    basis set group =>   5
Atom 114H    basis set group =>   5
Atom 115H    basis set group =>   5
Atom 116H    basis set group =>   5
Atom 117H    basis set group =>   5
Atom 118H    basis set group =>   5
Atom 119H    basis set group =>   5
Atom 120H    basis set group =>   5
Atom 121H    basis set group =>   5
Atom 122H    basis set group =>   5
Atom 123H    basis set group =>   5
Atom 124H    basis set group =>   5
Atom 125H    basis set group =>   5
Atom 126H    basis set group =>   5
Atom 127H    basis set group =>   5
Atom 128H    basis set group =>   5
Atom 129H    basis set group =>   5
Atom 130H    basis set group =>   5
Atom 131H    basis set group =>   5
Atom 132H    basis set group =>   5
Atom 133H    basis set group =>   5
Atom 134H    basis set group =>   5
Atom 135H    basis set group =>   5
Atom 136H    basis set group =>   5
---------------------------------
AUXILIARY/J BASIS SET INFORMATION
---------------------------------
There are 5 groups of distinct atoms

 Group   1 Type Mg  : 14s5p5d2f1g contracted to 8s4p4d1f1g pattern {71111111/2111/2111/2/1}
 Group   2 Type C   : 12s5p4d2f1g contracted to 6s4p3d1f1g pattern {711111/2111/211/2/1}
 Group   3 Type N   : 12s5p4d2f1g contracted to 6s4p3d1f1g pattern {711111/2111/211/2/1}
 Group   4 Type O   : 12s5p4d2f1g contracted to 6s4p3d1f1g pattern {711111/2111/211/2/1}
 Group   5 Type H   : 5s2p1d contracted to 3s1p1d pattern {311/2/1}

Atom   0Mg   basis set group =>   1
Atom   1C    basis set group =>   2
Atom   2C    basis set group =>   2
Atom   3C    basis set group =>   2
Atom   4C    basis set group =>   2
Atom   5N    basis set group =>   3
Atom   6C    basis set group =>   2
Atom   7C    basis set group =>   2
Atom   8C    basis set group =>   2
Atom   9C    basis set group =>   2
Atom  10C    basis set group =>   2
Atom  11C    basis set group =>   2
Atom  12C    basis set group =>   2
Atom  13C    basis set group =>   2
Atom  14O    basis set group =>   4
Atom  15O    basis set group =>   4
Atom  16N    basis set group =>   3
Atom  17C    basis set group =>   2
Atom  18C    basis set group =>   2
Atom  19C    basis set group =>   2
Atom  20C    basis set group =>   2
Atom  21C    basis set group =>   2
Atom  22C    basis set group =>   2
Atom  23C    basis set group =>   2
Atom  24N    basis set group =>   3
Atom  25C    basis set group =>   2
Atom  26C    basis set group =>   2
Atom  27C    basis set group =>   2
Atom  28C    basis set group =>   2
Atom  29C    basis set group =>   2
Atom  30C    basis set group =>   2
Atom  31C    basis set group =>   2
Atom  32N    basis set group =>   3
Atom  33C    basis set group =>   2
Atom  34C    basis set group =>   2
Atom  35C    basis set group =>   2
Atom  36C    basis set group =>   2
Atom  37C    basis set group =>   2
Atom  38C    basis set group =>   2
Atom  39O    basis set group =>   4
Atom  40C    basis set group =>   2
Atom  41C    basis set group =>   2
Atom  42O    basis set group =>   4
Atom  43O    basis set group =>   4
Atom  44C    basis set group =>   2
Atom  45C    basis set group =>   2
Atom  46C    basis set group =>   2
Atom  47C    basis set group =>   2
Atom  48C    basis set group =>   2
Atom  49C    basis set group =>   2
Atom  50C    basis set group =>   2
Atom  51C    basis set group =>   2
Atom  52C    basis set group =>   2
Atom  53C    basis set group =>   2
Atom  54C    basis set group =>   2
Atom  55C    basis set group =>   2
Atom  56C    basis set group =>   2
Atom  57C    basis set group =>   2
Atom  58C    basis set group =>   2
Atom  59C    basis set group =>   2
Atom  60C    basis set group =>   2
Atom  61C    basis set group =>   2
Atom  62C    basis set group =>   2
Atom  63C    basis set group =>   2
Atom  64C    basis set group =>   2
Atom  65H    basis set group =>   5
Atom  66H    basis set group =>   5
Atom  67H    basis set group =>   5
Atom  68H    basis set group =>   5
Atom  69H    basis set group =>   5
Atom  70H    basis set group =>   5
Atom  71H    basis set group =>   5
Atom  72H    basis set group =>   5
Atom  73H    basis set group =>   5
Atom  74H    basis set group =>   5
Atom  75H    basis set group =>   5
Atom  76H    basis set group =>   5
Atom  77H    basis set group =>   5
Atom  78H    basis set group =>   5
Atom  79H    basis set group =>   5
Atom  80H    basis set group =>   5
Atom  81H    basis set group =>   5
Atom  82H    basis set group =>   5
Atom  83H    basis set group =>   5
Atom  84H    basis set group =>   5
Atom  85H    basis set group =>   5
Atom  86H    basis set group =>   5
Atom  87H    basis set group =>   5
Atom  88H    basis set group =>   5
Atom  89H    basis set group =>   5
Atom  90H    basis set group =>   5
Atom  91H    basis set group =>   5
Atom  92H    basis set group =>   5
Atom  93H    basis set group =>   5
Atom  94H    basis set group =>   5
Atom  95H    basis set group =>   5
Atom  96H    basis set group =>   5
Atom  97H    basis set group =>   5
Atom  98H    basis set group =>   5
Atom  99H    basis set group =>   5
Atom 100H    basis set group =>   5
Atom 101H    basis set group =>   5
Atom 102H    basis set group =>   5
Atom 103H    basis set group =>   5
Atom 104H    basis set group =>   5
Atom 105H    basis set group =>   5
Atom 106H    basis set group =>   5
Atom 107H    basis set group =>   5
Atom 108H    basis set group =>   5
Atom 109H    basis set group =>   5
Atom 110H    basis set group =>   5
Atom 111H    basis set group =>   5
Atom 112H    basis set group =>   5
Atom 113H    basis set group =>   5
Atom 114H    basis set group =>   5
Atom 115H    basis set group =>   5
Atom 116H    basis set group =>   5
Atom 117H    basis set group =>   5
Atom 118H    basis set group =>   5
Atom 119H    basis set group =>   5
Atom 120H    basis set group =>   5
Atom 121H    basis set group =>   5
Atom 122H    basis set group =>   5
Atom 123H    basis set group =>   5
Atom 124H    basis set group =>   5
Atom 125H    basis set group =>   5
Atom 126H    basis set group =>   5
Atom 127H    basis set group =>   5
Atom 128H    basis set group =>   5
Atom 129H    basis set group =>   5
Atom 130H    basis set group =>   5
Atom 131H    basis set group =>   5
Atom 132H    basis set group =>   5
Atom 133H    basis set group =>   5
Atom 134H    basis set group =>   5
Atom 135H    basis set group =>   5
Atom 136H    basis set group =>   5


           ************************************************************
           *        Program running with 4 parallel MPI-processes     *
           *              working on a common directory               *
           ************************************************************
------------------------------------------------------------------------------
                             ORCA STARTUP CALCULATIONS
                           -- RI-GTO INTEGRALS CHOSEN --
------------------------------------------------------------------------------
------------------------------------------------------------------------------
                   ___                                                        
                  /   \      - P O W E R E D   B Y -                         
                 /     \                                                     
                 |  |  |   _    _      __       _____    __    __             
                 |  |  |  | |  | |    /  \     |  _  \  |  |  /  |          
                  \  \/   | |  | |   /    \    | | | |  |  | /  /          
                 / \  \   | |__| |  /  /\  \   | |_| |  |  |/  /          
                |  |  |   |  __  | /  /__\  \  |    /   |      \           
                |  |  |   | |  | | |   __   |  |    \   |  |\   \          
                \     /   | |  | | |  |  |  |  | |\  \  |  | \   \       
                 \___/    |_|  |_| |__|  |__|  |_| \__\ |__|  \__/        
                                                                              
                      - O R C A' S   B I G   F R I E N D -                    
                                      &                                       
                       - I N T E G R A L  F E E D E R -                       
                                                                              
 v1 FN, 2020, v2 2021, v3 2022-2024                                           
------------------------------------------------------------------------------


----------------------
SHARK INTEGRAL PACKAGE
----------------------

Number of atoms                             ...    137
Number of basis functions                   ...   2448
Number of shells                            ...   1004
Maximum angular momentum                    ...      3
Integral batch strategy                     ... SHARK/LIBINT Hybrid
RI-J (if used) integral strategy            ... SPLIT-RIJ (Revised 2003 algorithm where possible)
Printlevel                                  ...      1
Contraction scheme used                     ... SEGMENTED contraction
Prescreening option                         ... SCHWARTZ
   Thresh                                   ... 2.500e-11
   Tcut                                     ... 2.500e-12
   Tpresel                                  ... 2.500e-12 
Coulomb Range Separation                    ... NOT USED
Exchange Range Separation                   ... NOT USED
Multipole approximations                    ... NOT USED
Finite Nucleus Model                        ... NOT USED
CABS basis                                  ... NOT available
Auxiliary Coulomb fitting basis             ... AVAILABLE
   # of basis functions in Aux-J            ...   3984
   # of shells in Aux-J                     ...   1338
   Maximum angular momentum in Aux-J        ...      4
Auxiliary J/K fitting basis                 ... NOT available
Auxiliary Correlation fitting basis         ... NOT available
Auxiliary 'external' fitting basis          ... NOT available

Checking pre-screening integrals            ... done (  0.0 sec) Dimension = 1004
   => SHARK Basis and OBASIS are compatible. Storing Pre-screening
Shell pair information
Shell pair cut-off parameter TPreSel        ...   2.5e-12
Total number of shell pairs                 ...    504510
Shell pairs after pre-screening             ...    146480
Total number of primitive shell pairs       ...   1511112
Primitive shell pairs kept                  ...    279455
          la=0 lb=0:  40911 shell pairs
          la=1 lb=0:  44353 shell pairs
          la=1 lb=1:  12180 shell pairs
          la=2 lb=0:  19510 shell pairs
          la=2 lb=1:  10927 shell pairs
          la=2 lb=2:   2499 shell pairs
          la=3 lb=0:   8664 shell pairs
          la=3 lb=1:   4889 shell pairs
          la=3 lb=2:   2077 shell pairs
          la=3 lb=3:    470 shell pairs

Checking whether 4 symmetric matrices of dimension 2448 fit in memory
:Max Core in MB      =   2200.00
 MB in use           =    175.73
 MB left             =   2024.27
 MB needed           =     91.48
 Data fit in memory  = YES
Calculating RI/J V-Matrix + Cholesky decomp.... done (  1.9 sec)
Calculating Nuclear repulsion               ... done (  0.0 sec) ENN=   8806.212563571489 Eh

Diagonalization of the overlap matrix:
Smallest eigenvalue                        ... 3.523e-06
Time for diagonalization                   ...    2.753 sec
Threshold for overlap eigenvalues          ... 1.000e-07
Number of eigenvalues below threshold      ... 0
Time for construction of square roots      ...    3.227 sec
Total time needed                          ...    6.053 sec

-------------------
DFT GRID GENERATION
-------------------

General Integration Accuracy     IntAcc      ... 4.959
Radial Grid Type                 RadialGrid  ... OptM3 with GC (2021)
Angular Grid (max. ang.)         AngularGrid ... 6 (Lebedev-590)
Angular grid pruning method      GridPruning ... 4 (adaptive)
Weight generation scheme         WeightScheme... mBecke (2022)
Basis function cutoff            BFCut       ... 1.0000e-11
Integration weight cutoff        WCut        ... 1.0000e-14
Partially contracted basis set               ... off
Rotationally invariant grid construction     ... off
Angular grids for H and He will be reduced by one unit

Total number of grid points                  ...  1524069
Total number of batches                      ...    23877
Average number of points per batch           ...       63
Average number of grid points per atom       ...    11125

--------------------
COSX GRID GENERATION
--------------------

GRIDX 1
-------
General Integration Accuracy     IntAcc      ... 4.020
Radial Grid Type                 RadialGrid  ... OptM3 with GC (2021)
Angular Grid (max. ang.)         AngularGrid ... 2 (Lebedev-110)
Angular grid pruning method      GridPruning ... 4 (adaptive)
Weight generation scheme         WeightScheme... mBecke (2022)
Basis function cutoff            BFCut       ... 1.0000e-11
Integration weight cutoff        WCut        ... 1.0000e-14
Partially contracted basis set               ... on
Rotationally invariant grid construction     ... off
Angular grids for H and He will be reduced by one unit

Total number of grid points                  ...   164449
Total number of batches                      ...     1364
Average number of points per batch           ...      120
Average number of grid points per atom       ...     1200
UseSFitting                                  ... on

GRIDX 2
-------
General Integration Accuracy     IntAcc      ... 4.338
Radial Grid Type                 RadialGrid  ... OptM3 with GC (2021)
Angular Grid (max. ang.)         AngularGrid ... 3 (Lebedev-194)
Angular grid pruning method      GridPruning ... 4 (adaptive)
Weight generation scheme         WeightScheme... mBecke (2022)
Basis function cutoff            BFCut       ... 1.0000e-11
Integration weight cutoff        WCut        ... 1.0000e-14
Partially contracted basis set               ... on
Rotationally invariant grid construction     ... off
Angular grids for H and He will be reduced by one unit

Total number of grid points                  ...   357572
Total number of batches                      ...     2863
Average number of points per batch           ...      124
Average number of grid points per atom       ...     2610
UseSFitting                                  ... on

GRIDX 3
-------
General Integration Accuracy     IntAcc      ... 4.871
Radial Grid Type                 RadialGrid  ... OptM3 with GC (2021)
Angular Grid (max. ang.)         AngularGrid ... 4 (Lebedev-302)
Angular grid pruning method      GridPruning ... 4 (adaptive)
Weight generation scheme         WeightScheme... mBecke (2022)
Basis function cutoff            BFCut       ... 1.0000e-11
Integration weight cutoff        WCut        ... 1.0000e-14
Partially contracted basis set               ... on
Rotationally invariant grid construction     ... off
Angular grids for H and He will be reduced by one unit

Total number of grid points                  ...   678711
Total number of batches                      ...     5378
Average number of points per batch           ...      126
Average number of grid points per atom       ...     4954
UseSFitting                                  ... on
Grids setup in  70.9 sec
Initializing property integral containers    ... done (  0.0 sec)

SHARK setup successfully completed in  83.2 seconds

Maximum memory used throughout the entire STARTUP-calculation: 524.3 MB


           ************************************************************
           *        Program running with 4 parallel MPI-processes     *
           *              working on a common directory               *
           ************************************************************
-------------------------------------------------------------------------------
                                 ORCA GUESS
                   Start orbitals & Density for SCF / CASSCF
-------------------------------------------------------------------------------

------------
SCF SETTINGS
------------
Hamiltonian:
 Density Functional     Method          .... DFT(GTOs)
 Exchange Functional    Exchange        .... M062X
 Correlation Functional Correlation     .... M062X
 Gradients option       PostSCFGGA      .... off
 Hybrid DFT is turned on
   Fraction HF Exchange ScalHFX         ....  0.540000
   Scaling of DF-GGA-X  ScalDFX         ....  0.460000
   Scaling of DF-GGA-C  ScalDFC         ....  1.000000
   Scaling of DF-LDA-C  ScalLDAC        ....  1.000000
   Perturbative correction              ....  0.000000
 RI-approximation to the Coulomb term is turned on
   Number of AuxJ basis functions       .... 3984
   RIJ-COSX (HFX calculated with COS-X)).... on


General Settings:
 Integral files         IntName         .... tddft
 Hartree-Fock type      HFTyp           .... RHF
 Total Charge           Charge          ....    0
 Multiplicity           Mult            ....    1
 Number of Electrons    NEL             ....  482
 Basis Dimension        Dim             .... 2448
 Nuclear Repulsion      ENuc            ....   8806.2125635715 Eh

Convergence Acceleration:
 AO-DIIS                CNVDIIS         .... on
   Start iteration      DIISMaxIt       ....    12
   Startup error        DIISStart       ....  0.200000
   # of expansion vecs  DIISMaxEq       ....     5
   Bias factor          DIISBfac        ....   1.050
   Max. coefficient     DIISMaxC        ....  10.000
 MO-DIIS                CNVKDIIS        .... off
 Trust-Rad. Augm. Hess. CNVTRAH         .... auto
   Auto Start mean grad. ratio tolernc. ....  1.125000
   Auto Start start iteration           ....    50
   Auto Start num. interpolation iter.  ....    10
   Max. Number of Micro iterations      ....    24
   Max. Number of Macro iterations      .... Maxiter - #DIIS iter
   Number of Davidson start vectors     ....     2
   Converg. threshold    (grad. norm)   ....   1.000e-05
   Grad. Scal. Fac. for Micro threshold ....   0.100
   Minimum threshold for Micro iter.    ....   1.000e-02
   NR start threshold (gradient norm)   ....   1.000e-04
   Initial trust radius                 ....   0.400
   Minimum AH scaling param. (alpha)    ....   1.000
   Maximum AH scaling param. (alpha)    .... 1000.000
   Quad. conv. algorithm                .... NR
   White noise on init. David. guess    .... on
   Maximum white noise                  ....   0.010
   Pseudo random numbers                .... off
   Inactive MOs                         .... canonical
   Orbital update algorithm             .... Taylor
   Preconditioner                       .... Diag
   Full preconditioner red. dimension   ....   250
 SOSCF                 CNVSOSCF           .... on
   Start iteration     SOSCFMaxIt         ....   150
   Startup grad/error  SOSCFStart         ....  0.003300
   Hessian update      SOSCFHessUp        .... L-BFGS
   Autom. constraints  SOSCFAutoConstrain .... off
 Level Shifting         CNVShift        .... on
   Level shift para.    LevelShift      ....    0.2500
   Turn off err/grad.   ShiftErr        ....    0.0010
 Zerner damping         CNVZerner       .... off
 Static damping         CNVDamp         .... on
   Fraction old density DampFac         ....    0.7000
   Max. Damping (<1)    DampMax         ....    0.9800
   Min. Damping (>=0)   DampMin         ....    0.0000
   Turn off err/grad.   DampErr         ....    0.1000

SCF Procedure:
 Maximum # iterations   MaxIter         ....   125
 SCF integral mode      SCFMode         .... Direct
   Integral package                     .... SHARK and LIBINT hybrid scheme
 Reset frequency        DirectResetFreq ....    20
 Integral Threshold     Thresh          ....  2.500e-11 Eh
 Primitive CutOff       TCut            ....  2.500e-12 Eh

Convergence Tolerance:
 Convergence Check Mode ConvCheckMode   .... Total+1el-Energy
 Convergence forced     ConvForced      .... 1
 Energy Change          TolE            ....  1.000e-08 Eh
 1-El. energy change                    ....  1.000e-05 Eh
 Orbital Gradient       TolG            ....  1.000e-05
 Orbital Rotation angle TolX            ....  1.000e-05
 DIIS Error             TolErr          ....  5.000e-07

------------------------------
INITIAL GUESS: MODEL POTENTIAL
------------------------------
Loading Hartree-Fock densities                     ... done
Calculating cut-offs                               ... done
Initializing the effective Hamiltonian             ... done
Setting up the integral package (SHARK)            ... done
Starting the Coulomb interaction                   ... done (  16.3 sec)
Making the grid                                    ... done (   3.2 sec)
Mapping shells                                     ... done
Starting the XC term evaluation                    ... done (   3.1 sec)
  promolecular density results
     # of electrons  =    481.975676764
     EX              =   -385.790702513
     EC              =    -16.191639786
     EX+EC           =   -401.982342299
Transforming the Hamiltonian                       ... done (   2.0 sec)
Diagonalizing the Hamiltonian                      ... done (   2.7 sec)
Back transforming the eigenvectors                 ... done (   1.4 sec)
Now organizing SCF variables                       ... done
                      ------------------
                      INITIAL GUESS DONE (  29.5 sec)
                      ------------------
             **** ENERGY FILE WAS UPDATED (tddft.en.tmp) ****
Finished Guess after  36.8 sec
Maximum memory used throughout the entire GUESS-calculation: 332.6 MB


           ************************************************************
           *        Program running with 4 parallel MPI-processes     *
           *              working on a common directory               *
           ************************************************************

-------------------------------------------------------------------------------------------
                                      ORCA LEAN-SCF
                              memory conserving SCF solver
-------------------------------------------------------------------------------------------

--------------------
CPCM SOLVATION MODEL
--------------------
CPCM parameters:
  Epsilon                                         ...       8.9990
  Refrac                                          ...       1.4242
  Rsolv                                           ...       1.3000
  Surface type                                    ... GAUSSIAN VDW
  Discretization scheme                           ... Constant charge density
    Threshold for H atoms                         ...       5.0000 (charges/Ang^2)
    Threshold for non-H atoms                     ...       5.0000 (charges/Ang^2)
  Epsilon function type                           ...         CPCM
Solvent:                                          ... DICHLOROMETHANE
Radii:
  Scheme                                          ... Element-dependent radii
  Radius for Mg used is    3.9231 Bohr (=   2.0760 Ang.)
  Radius for C  used is    3.8550 Bohr (=   2.0400 Ang.)
  Radius for N  used is    3.5149 Bohr (=   1.8600 Ang.)
  Radius for O  used is    3.4469 Bohr (=   1.8240 Ang.)
  Radius for H  used is    2.4944 Bohr (=   1.3200 Ang.)
Calculating surface                               ...        done! (  0.1s)
Cavity surface points                             ...        10901
Cavity Volume                                     ...    7471.3652
Cavity Surface-area                               ...    3694.6092
Calculating surface distance matrix               ...        done! (  2.5s)
Performing Cholesky decomposition & store         ...        done! ( 23.3s)
Overall time for CPCM initialization              ...                25.9s

----------------------------------------D-I-I-S--------------------------------------------
Iteration    Energy (Eh)           Delta-E    RMSDP     MaxDP     DIISErr   Damp  Time(sec)
-------------------------------------------------------------------------------------------
               ***  Starting incremental Fock matrix formation  ***
    1    -2932.5745250405161642     0.00e+00  1.64e-03  1.55e-01  2.92e-01  0.700 688.6
    2    -2933.3730412993245409    -7.99e-01  1.44e-03  1.89e-01  1.43e-01  0.700 339.1
                               ***Turning on AO-DIIS***
    3    -2933.7584407131616899    -3.85e-01  8.53e-04  8.15e-02  5.59e-02  0.700 363.7
    4    -2933.9850398755934293    -2.27e-01  1.85e-03  1.26e-01  4.30e-02  0.000 318.0
    5    -2934.4686358972958260    -4.84e-01  2.19e-04  2.83e-02  6.89e-03  0.000 354.5
    6    -2934.4698264460585051    -1.19e-03  7.81e-05  6.51e-03  3.76e-03  0.000 293.7
                              *** Initializing SOSCF ***
---------------------------------------S-O-S-C-F--------------------------------------
Iteration    Energy (Eh)           Delta-E    RMSDP     MaxDP     MaxGrad    Time(sec)
--------------------------------------------------------------------------------------
    7    -2934.4700289479624189    -2.03e-04  3.80e-05  2.86e-03  9.02e-04   274.0
               *** Restarting incremental Fock matrix formation ***
    8    -2934.4700643738306098    -3.54e-05  8.06e-05  6.12e-03  8.33e-04   827.9
    9    -2934.4701067380428867    -4.24e-05  6.02e-05  4.09e-03  3.80e-04   593.4
   10    -2934.4701197408958251    -1.30e-05  4.66e-05  3.67e-03  1.59e-04   597.3
   11    -2934.4701259523335466    -6.21e-06  1.21e-05  8.33e-04  6.48e-05   580.9
   12    -2934.4701264204413746    -4.68e-07  7.18e-06  5.51e-04  2.98e-05   502.7
   13    -2934.4701269247871096    -5.04e-07  3.01e-06  2.60e-04  1.97e-05   386.8
   14    -2934.4701268386834272     8.61e-08  1.74e-06  1.17e-04  1.09e-05   345.2
   15    -2934.4701267736909358     6.50e-08  2.59e-06  2.86e-04  4.44e-06   329.5
   16    -2934.4701267877444479    -1.41e-08  1.59e-06  1.15e-04  1.74e-06   293.4
                  *** Gradient check signals convergence ***

               *****************************************************
               *                     SUCCESS                       *
               *           SCF CONVERGED AFTER  16 CYCLES          *
               *****************************************************

Recomputing exchange energy using gridx3       ... done ( 1279.771 sec)
Old exchange energy                            :   -213.324817837 Eh
New exchange energy                            :   -213.324802775 Eh
Exchange energy change after final integration :      0.000015062 Eh
Total energy after final integration           :  -2934.470111765 Eh
             **** ENERGY FILE WAS UPDATED (tddft.en.tmp) ****

----------------
TOTAL SCF ENERGY
----------------

Total Energy       :      -2934.47011176509523 Eh          -79850.99129 eV

Components:
Nuclear Repulsion  :       8806.21256357148923 Eh          239629.22637 eV
Electronic Energy  :     -11740.64138690604341 Eh         -319479.09414 eV
One Electron Energy:     -21529.61035892475047 Eh         -585850.48193 eV
Two Electron Energy:       9788.96897201870706 Eh          266371.38779 eV
CPCM Dielectric    :         -0.04130349225176 Eh              -1.12393 eV

Virial components:
Potential Energy   :      -5854.18592029213687 Eh         -159300.49757 eV
Kinetic Energy     :       2919.71580852704164 Eh           79449.50628 eV
Virial Ratio       :          2.00505333539482

DFT components:
N(Alpha)           :      241.000001620988 electrons
N(Beta)            :      241.000001620988 electrons
N(Total)           :      482.000003241977 electrons
E(XC)              :     -198.947418021838 Eh       

CPCM Solvation Model Properties:
Surface-charge          :         -0.07478926209767
Corrected charge        :          0.00000000000000
Outlying charge corr.   :          0.00014466444795 Eh               0.00394 eV
Free-energy (cav+disp)  :  This term is not implemented in the current solvation scheme

---------------
SCF CONVERGENCE
---------------

  Last Energy change         ...    1.4054e-08  Tolerance :   1.0000e-08
  Last MAX-Density change    ...    1.1463e-04  Tolerance :   1.0000e-07
  Last RMS-Density change    ...    1.5911e-06  Tolerance :   5.0000e-09
  Last DIIS Error            ...    9.0191e-04  Tolerance :   5.0000e-07
  Last Orbital Gradient      ...    1.7367e-06  Tolerance :   1.0000e-05
  Last Orbital Rotation      ...    2.3851e-05  Tolerance :   1.0000e-05


----------------
ORBITAL ENERGIES
----------------

  NO   OCC          E(Eh)            E(eV) 
   0   2.0000     -47.516232     -1292.9824 
   1   2.0000     -19.680597      -535.5363 
   2   2.0000     -19.673445      -535.3416 
   3   2.0000     -19.630555      -534.1746 
   4   2.0000     -19.628788      -534.1265 
   5   2.0000     -19.623722      -533.9886 
   6   2.0000     -14.764216      -401.7547 
   7   2.0000     -14.742886      -401.1743 
   8   2.0000     -14.741516      -401.1370 
   9   2.0000     -14.740218      -401.1017 
  10   2.0000     -10.684300      -290.7346 
  11   2.0000     -10.677287      -290.5437 
  12   2.0000     -10.649066      -289.7758 
  13   2.0000     -10.593040      -288.2513 
  14   2.0000     -10.592040      -288.2241 
  15   2.0000     -10.590074      -288.1706 
  16   2.0000     -10.586653      -288.0775 
  17   2.0000     -10.585622      -288.0494 
  18   2.0000     -10.579756      -287.8898 
  19   2.0000     -10.575725      -287.7801 
  20   2.0000     -10.573951      -287.7318 
  21   2.0000     -10.573683      -287.7245 
  22   2.0000     -10.572163      -287.6832 
  23   2.0000     -10.570827      -287.6468 
  24   2.0000     -10.570454      -287.6367 
  25   2.0000     -10.558628      -287.3149 
  26   2.0000     -10.552828      -287.1570 
  27   2.0000     -10.551942      -287.1329 
  28   2.0000     -10.551917      -287.1323 
  29   2.0000     -10.551881      -287.1313 
  30   2.0000     -10.550889      -287.1043 
  31   2.0000     -10.550705      -287.0993 
  32   2.0000     -10.550353      -287.0897 
  33   2.0000     -10.549600      -287.0692 
  34   2.0000     -10.549305      -287.0612 
  35   2.0000     -10.542376      -286.8726 
  36   2.0000     -10.541402      -286.8461 
  37   2.0000     -10.540437      -286.8199 
  38   2.0000     -10.538971      -286.7800 
  39   2.0000     -10.538077      -286.7557 
  40   2.0000     -10.537949      -286.7522 
  41   2.0000     -10.535832      -286.6946 
  42   2.0000     -10.534813      -286.6668 
  43   2.0000     -10.532755      -286.6108 
  44   2.0000     -10.530970      -286.5623 
  45   2.0000     -10.529576      -286.5243 
  46   2.0000     -10.529552      -286.5237 
  47   2.0000     -10.529280      -286.5163 
  48   2.0000     -10.529096      -286.5113 
  49   2.0000     -10.528435      -286.4933 
  50   2.0000     -10.527719      -286.4738 
  51   2.0000     -10.526367      -286.4370 
  52   2.0000     -10.525441      -286.4118 
  53   2.0000     -10.522603      -286.3346 
  54   2.0000     -10.521131      -286.2945 
  55   2.0000     -10.519176      -286.2413 
  56   2.0000     -10.518832      -286.2320 
  57   2.0000     -10.518788      -286.2308 
  58   2.0000     -10.518550      -286.2243 
  59   2.0000     -10.518409      -286.2205 
  60   2.0000     -10.518262      -286.2165 
  61   2.0000     -10.513716      -286.0927 
  62   2.0000     -10.513569      -286.0888 
  63   2.0000     -10.513484      -286.0864 
  64   2.0000     -10.512851      -286.0692 
  65   2.0000      -3.271672       -89.0267 
  66   2.0000      -1.966567       -53.5130 
  67   2.0000      -1.963369       -53.4260 
  68   2.0000      -1.963037       -53.4170 
  69   2.0000      -1.244485       -33.8642 
  70   2.0000      -1.236971       -33.6597 
  71   2.0000      -1.181413       -32.1479 
  72   2.0000      -1.152916       -31.3725 
  73   2.0000      -1.147066       -31.2133 
  74   2.0000      -1.083603       -29.4863 
  75   2.0000      -1.073677       -29.2162 
  76   2.0000      -1.069736       -29.1090 
  77   2.0000      -1.059460       -28.8294 
  78   2.0000      -0.955690       -26.0057 
  79   2.0000      -0.932555       -25.3761 
  80   2.0000      -0.923237       -25.1225 
  81   2.0000      -0.921089       -25.0641 
  82   2.0000      -0.917638       -24.9702 
  83   2.0000      -0.914536       -24.8858 
  84   2.0000      -0.911585       -24.8055 
  85   2.0000      -0.904261       -24.6062 
  86   2.0000      -0.901592       -24.5336 
  87   2.0000      -0.898641       -24.4533 
  88   2.0000      -0.896845       -24.4044 
  89   2.0000      -0.881002       -23.9733 
  90   2.0000      -0.870579       -23.6896 
  91   2.0000      -0.862082       -23.4584 
  92   2.0000      -0.858969       -23.3737 
  93   2.0000      -0.848525       -23.0895 
  94   2.0000      -0.845655       -23.0115 
  95   2.0000      -0.838069       -22.8050 
  96   2.0000      -0.831476       -22.6256 
  97   2.0000      -0.826276       -22.4841 
  98   2.0000      -0.813324       -22.1317 
  99   2.0000      -0.801421       -21.8078 
 100   2.0000      -0.796831       -21.6829 
 101   2.0000      -0.789784       -21.4911 
 102   2.0000      -0.782177       -21.2841 
 103   2.0000      -0.773542       -21.0491 
 104   2.0000      -0.769373       -20.9357 
 105   2.0000      -0.767613       -20.8878 
 106   2.0000      -0.762861       -20.7585 
 107   2.0000      -0.756361       -20.5816 
 108   2.0000      -0.747472       -20.3397 
 109   2.0000      -0.741882       -20.1876 
 110   2.0000      -0.732989       -19.9456 
 111   2.0000      -0.717397       -19.5214 
 112   2.0000      -0.709721       -19.3125 
 113   2.0000      -0.702525       -19.1167 
 114   2.0000      -0.698799       -19.0153 
 115   2.0000      -0.687215       -18.7001 
 116   2.0000      -0.672852       -18.3092 
 117   2.0000      -0.666701       -18.1418 
 118   2.0000      -0.663781       -18.0624 
 119   2.0000      -0.658390       -17.9157 
 120   2.0000      -0.651302       -17.7228 
 121   2.0000      -0.648968       -17.6593 
 122   2.0000      -0.641238       -17.4490 
 123   2.0000      -0.636936       -17.3319 
 124   2.0000      -0.632436       -17.2094 
 125   2.0000      -0.624907       -17.0046 
 126   2.0000      -0.616580       -16.7780 
 127   2.0000      -0.615356       -16.7447 
 128   2.0000      -0.610540       -16.6136 
 129   2.0000      -0.604472       -16.4485 
 130   2.0000      -0.601067       -16.3559 
 131   2.0000      -0.598297       -16.2805 
 132   2.0000      -0.594261       -16.1707 
 133   2.0000      -0.590811       -16.0768 
 134   2.0000      -0.582032       -15.8379 
 135   2.0000      -0.579927       -15.7806 
 136   2.0000      -0.574165       -15.6238 
 137   2.0000      -0.572067       -15.5667 
 138   2.0000      -0.563629       -15.3371 
 139   2.0000      -0.559367       -15.2212 
 140   2.0000      -0.556656       -15.1474 
 141   2.0000      -0.550760       -14.9869 
 142   2.0000      -0.548962       -14.9380 
 143   2.0000      -0.546993       -14.8844 
 144   2.0000      -0.541708       -14.7406 
 145   2.0000      -0.535016       -14.5585 
 146   2.0000      -0.534367       -14.5409 
 147   2.0000      -0.529881       -14.4188 
 148   2.0000      -0.525703       -14.3051 
 149   2.0000      -0.523650       -14.2492 
 150   2.0000      -0.521574       -14.1928 
 151   2.0000      -0.515762       -14.0346 
 152   2.0000      -0.514206       -13.9923 
 153   2.0000      -0.514049       -13.9880 
 154   2.0000      -0.511049       -13.9063 
 155   2.0000      -0.507662       -13.8142 
 156   2.0000      -0.506590       -13.7850 
 157   2.0000      -0.504484       -13.7277 
 158   2.0000      -0.503378       -13.6976 
 159   2.0000      -0.501964       -13.6591 
 160   2.0000      -0.501524       -13.6472 
 161   2.0000      -0.497845       -13.5471 
 162   2.0000      -0.495873       -13.4934 
 163   2.0000      -0.491242       -13.3674 
 164   2.0000      -0.487490       -13.2653 
 165   2.0000      -0.485342       -13.2068 
 166   2.0000      -0.484892       -13.1946 
 167   2.0000      -0.482858       -13.1392 
 168   2.0000      -0.476420       -12.9640 
 169   2.0000      -0.474776       -12.9193 
 170   2.0000      -0.471183       -12.8215 
 171   2.0000      -0.470188       -12.7945 
 172   2.0000      -0.469799       -12.7839 
 173   2.0000      -0.468860       -12.7583 
 174   2.0000      -0.467568       -12.7232 
 175   2.0000      -0.464049       -12.6274 
 176   2.0000      -0.463443       -12.6109 
 177   2.0000      -0.461822       -12.5668 
 178   2.0000      -0.459224       -12.4961 
 179   2.0000      -0.458583       -12.4787 
 180   2.0000      -0.457917       -12.4606 
 181   2.0000      -0.456136       -12.4121 
 182   2.0000      -0.454706       -12.3732 
 183   2.0000      -0.451357       -12.2820 
 184   2.0000      -0.449773       -12.2389 
 185   2.0000      -0.444849       -12.1050 
 186   2.0000      -0.443746       -12.0749 
 187   2.0000      -0.441025       -12.0009 
 188   2.0000      -0.438684       -11.9372 
 189   2.0000      -0.437747       -11.9117 
 190   2.0000      -0.435890       -11.8612 
 191   2.0000      -0.434498       -11.8233 
 192   2.0000      -0.433376       -11.7928 
 193   2.0000      -0.431749       -11.7485 
 194   2.0000      -0.430058       -11.7025 
 195   2.0000      -0.429144       -11.6776 
 196   2.0000      -0.425611       -11.5815 
 197   2.0000      -0.424174       -11.5424 
 198   2.0000      -0.421238       -11.4625 
 199   2.0000      -0.420836       -11.4515 
 200   2.0000      -0.418063       -11.3761 
 201   2.0000      -0.418004       -11.3745 
 202   2.0000      -0.411711       -11.2032 
 203   2.0000      -0.411315       -11.1925 
 204   2.0000      -0.407832       -11.0977 
 205   2.0000      -0.407577       -11.0907 
 206   2.0000      -0.400796       -10.9062 
 207   2.0000      -0.400466       -10.8972 
 208   2.0000      -0.399471       -10.8702 
 209   2.0000      -0.397950       -10.8288 
 210   2.0000      -0.394924       -10.7464 
 211   2.0000      -0.388990       -10.5850 
 212   2.0000      -0.388581       -10.5738 
 213   2.0000      -0.386601       -10.5200 
 214   2.0000      -0.385197       -10.4818 
 215   2.0000      -0.383664       -10.4400 
 216   2.0000      -0.380478       -10.3533 
 217   2.0000      -0.378572       -10.3015 
 218   2.0000      -0.377465       -10.2713 
 219   2.0000      -0.373681       -10.1684 
 220   2.0000      -0.372106       -10.1255 
 221   2.0000      -0.371145       -10.0994 
 222   2.0000      -0.370604       -10.0847 
 223   2.0000      -0.369631       -10.0582 
 224   2.0000      -0.368392       -10.0245 
 225   2.0000      -0.367238        -9.9931 
 226   2.0000      -0.366460        -9.9719 
 227   2.0000      -0.364581        -9.9207 
 228   2.0000      -0.362783        -9.8718 
 229   2.0000      -0.357328        -9.7234 
 230   2.0000      -0.345984        -9.4147 
 231   2.0000      -0.335964        -9.1421 
 232   2.0000      -0.333956        -9.0874 
 233   2.0000      -0.331584        -9.0229 
 234   2.0000      -0.320784        -8.7290 
 235   2.0000      -0.310180        -8.4404 
 236   2.0000      -0.303427        -8.2567 
 237   2.0000      -0.290370        -7.9014 
 238   2.0000      -0.283391        -7.7115 
 239   2.0000      -0.241530        -6.5724 
 240   2.0000      -0.224757        -6.1160 
 241   0.0000      -0.087391        -2.3780 
 242   0.0000      -0.053103        -1.4450 
 243   0.0000      -0.010202        -0.2776 
 244   0.0000       0.015478         0.4212 
 245   0.0000       0.018086         0.4921 
 246   0.0000       0.034735         0.9452 
 247   0.0000       0.039938         1.0868 
 248   0.0000       0.041249         1.1224 
 249   0.0000       0.046989         1.2786 
 250   0.0000       0.050604         1.3770 
 251   0.0000       0.060186         1.6377 
*Only the first 10 virtual orbitals were printed.

                    ********************************
                    * MULLIKEN POPULATION ANALYSIS *
                    ********************************

-----------------------
MULLIKEN ATOMIC CHARGES
-----------------------
   0 Mg:    0.769334
   1 C :   -0.134572
   2 C :   -0.361223
   3 C :   -0.282507
   4 C :   -0.248398
   5 N :   -0.437980
   6 C :    0.369172
   7 C :   -0.278691
   8 C :   -0.111957
   9 C :    0.161457
  10 C :   -0.473833
  11 C :   -0.370994
  12 C :   -0.325469
  13 C :    0.413405
  14 O :   -0.406960
  15 O :   -0.277517
  16 N :   -0.433522
  17 C :    0.264002
  18 C :    0.049373
  19 C :    0.052316
  20 C :    0.200817
  21 C :   -0.588620
  22 C :   -0.199473
  23 C :   -0.379488
  24 N :   -0.422264
  25 C :    0.172157
  26 C :    0.036221
  27 C :   -0.017687
  28 C :    0.243606
  29 C :   -0.550556
  30 C :   -0.444932
  31 C :   -0.411419
  32 N :   -0.468824
  33 C :    0.172538
  34 C :   -0.018049
  35 C :   -0.006790
  36 C :    0.212743
  37 C :   -0.553459
  38 C :    0.149308
  39 O :   -0.349466
  40 C :   -0.207330
  41 C :    0.372372
  42 O :   -0.385338
  43 O :   -0.270047
  44 C :   -0.283632
  45 C :   -0.173316
  46 C :   -0.161520
  47 C :    0.055610
  48 C :   -0.506119
  49 C :   -0.345640
  50 C :   -0.319760
  51 C :   -0.338032
  52 C :   -0.058875
  53 C :   -0.505046
  54 C :   -0.330949
  55 C :   -0.320082
  56 C :   -0.334902
  57 C :   -0.053503
  58 C :   -0.507151
  59 C :   -0.332137
  60 C :   -0.323884
  61 C :   -0.311442
  62 C :   -0.076675
  63 C :   -0.482259
  64 C :   -0.468688
  65 H :    0.192126
  66 H :    0.202031
  67 H :    0.216283
  68 H :    0.230486
  69 H :    0.178555
  70 H :    0.165304
  71 H :    0.161474
  72 H :    0.166898
  73 H :    0.186863
  74 H :    0.190306
  75 H :    0.182927
  76 H :    0.194054
  77 H :    0.162527
  78 H :    0.182450
  79 H :    0.198619
  80 H :    0.165039
  81 H :    0.160637
  82 H :    0.175412
  83 H :    0.185163
  84 H :    0.158535
  85 H :    0.172908
  86 H :    0.162960
  87 H :    0.165756
  88 H :    0.151460
  89 H :    0.150312
  90 H :    0.150632
  91 H :    0.180008
  92 H :    0.167911
  93 H :    0.184371
  94 H :    0.206149
  95 H :    0.163403
  96 H :    0.167398
  97 H :    0.165838
  98 H :    0.169579
  99 H :    0.152587
 100 H :    0.165197
 101 H :    0.168577
 102 H :    0.180417
 103 H :    0.157573
 104 H :    0.175280
 105 H :    0.162724
 106 H :    0.161218
 107 H :    0.165497
 108 H :    0.156291
 109 H :    0.162602
 110 H :    0.144764
 111 H :    0.158663
 112 H :    0.158423
 113 H :    0.152008
 114 H :    0.154648
 115 H :    0.158087
 116 H :    0.160592
 117 H :    0.152710
 118 H :    0.154367
 119 H :    0.157878
 120 H :    0.143314
 121 H :    0.152014
 122 H :    0.157196
 123 H :    0.159677
 124 H :    0.153610
 125 H :    0.158677
 126 H :    0.155157
 127 H :    0.157372
 128 H :    0.156756
 129 H :    0.148759
 130 H :    0.132208
 131 H :    0.148856
 132 H :    0.152936
 133 H :    0.156023
 134 H :    0.149895
 135 H :    0.152002
 136 H :    0.147613
Sum of atomic charges:   -0.0000000

--------------------------------
MULLIKEN REDUCED ORBITAL CHARGES
--------------------------------
  0 Mgs       :     4.525109  s :     4.525109
      pz      :     2.139589  p :     6.447301
      px      :     2.152030
      py      :     2.155682
      dz2     :     0.045669  d :     0.258257
      dxz     :     0.018793
      dyz     :     0.080392
      dx2y2   :     0.052420
      dxy     :     0.060982

  1 C s       :     3.242053  s :     3.242053
      pz      :     0.905166  p :     2.805413
      px      :     0.953713
      py      :     0.946534
      dz2     :     0.020013  d :     0.078056
      dxz     :     0.016131
      dyz     :     0.009906
      dx2y2   :     0.016027
      dxy     :     0.015979
      f0      :     0.001015  f :     0.009049
      f+1     :     0.001337
      f-1     :     0.001352
      f+2     :     0.002093
      f-2     :     0.001252
      f+3     :     0.000919
      f-3     :     0.001082

  2 C s       :     3.093577  s :     3.093577
      pz      :     1.126302  p :     3.214168
      px      :     1.066946
      py      :     1.020920
      dz2     :     0.007082  d :     0.046778
      dxz     :     0.010820
      dyz     :     0.008653
      dx2y2   :     0.012884
      dxy     :     0.007340
      f0      :     0.000646  f :     0.006700
      f+1     :     0.000403
      f-1     :     0.001226
      f+2     :     0.000749
      f-2     :     0.001444
      f+3     :     0.001235
      f-3     :     0.000996

  3 C s       :     3.060779  s :     3.060779
      pz      :     1.027094  p :     3.161709
      px      :     0.994324
      py      :     1.140291
      dz2     :     0.018943  d :     0.053526
      dxz     :     0.007376
      dyz     :     0.007324
      dx2y2   :     0.007404
      dxy     :     0.012478
      f0      :     0.000735  f :     0.006493
      f+1     :     0.001322
      f-1     :     0.000566
      f+2     :     0.001236
      f-2     :     0.001115
      f+3     :     0.000827
      f-3     :     0.000690

  4 C s       :     3.116535  s :     3.116535
      pz      :     1.032484  p :     3.062730
      px      :     1.124434
      py      :     0.905812
      dz2     :     0.009195  d :     0.062691
      dxz     :     0.013612
      dyz     :     0.011339
      dx2y2   :     0.019540
      dxy     :     0.009005
      f0      :     0.000724  f :     0.006442
      f+1     :     0.000352
      f-1     :     0.001104
      f+2     :     0.000762
      f-2     :     0.001342
      f+3     :     0.001280
      f-3     :     0.000879

  5 N s       :     3.701736  s :     3.701736
      pz      :     1.154649  p :     3.680169
      px      :     1.333758
      py      :     1.191763
      dz2     :     0.013012  d :     0.052603
      dxz     :     0.009465
      dyz     :     0.009118
      dx2y2   :     0.010402
      dxy     :     0.010606
      f0      :     0.000413  f :     0.003472
      f+1     :     0.000400
      f-1     :     0.000651
      f+2     :     0.000654
      f-2     :     0.000700
      f+3     :     0.000304
      f-3     :     0.000350

  6 C s       :     3.142574  s :     3.142574
      pz      :     0.871788  p :     2.347619
      px      :     0.719922
      py      :     0.755909
      dz2     :     0.037366  d :     0.128109
      dxz     :     0.020670
      dyz     :     0.010061
      dx2y2   :     0.028936
      dxy     :     0.031076
      f0      :     0.001112  f :     0.012526
      f+1     :     0.001333
      f-1     :     0.002311
      f+2     :     0.002800
      f-2     :     0.001666
      f+3     :     0.001523
      f-3     :     0.001781

  7 C s       :     3.274538  s :     3.274538
      pz      :     0.938083  p :     2.892025
      px      :     0.913860
      py      :     1.040082
      dz2     :     0.027394  d :     0.105359
      dxz     :     0.018548
      dyz     :     0.018653
      dx2y2   :     0.024820
      dxy     :     0.015944
      f0      :     0.001082  f :     0.006769
      f+1     :     0.001121
      f-1     :     0.000643
      f+2     :     0.001128
      f-2     :     0.001090
      f+3     :     0.000761
      f-3     :     0.000943

  8 C s       :     3.199496  s :     3.199496
      pz      :     0.892457  p :     2.795522
      px      :     0.972838
      py      :     0.930227
      dz2     :     0.028817  d :     0.110144
      dxz     :     0.020971
      dyz     :     0.019825
      dx2y2   :     0.015084
      dxy     :     0.025447
      f0      :     0.001320  f :     0.006793
      f+1     :     0.001002
      f-1     :     0.001075
      f+2     :     0.000704
      f-2     :     0.001214
      f+3     :     0.000578
      f-3     :     0.000899

  9 C s       :     3.175900  s :     3.175900
      pz      :     0.830173  p :     2.523365
      px      :     0.795622
      py      :     0.897570
      dz2     :     0.038975  d :     0.126612
      dxz     :     0.021571
      dyz     :     0.012604
      dx2y2   :     0.026029
      dxy     :     0.027433
      f0      :     0.001744  f :     0.012666
      f+1     :     0.001457
      f-1     :     0.002208
      f+2     :     0.001953
      f-2     :     0.002478
      f+3     :     0.001840
      f-3     :     0.000985

 10 C s       :     3.348568  s :     3.348568
      pz      :     0.955471  p :     3.068833
      px      :     1.079696
      py      :     1.033666
      dz2     :     0.016024  d :     0.053216
      dxz     :     0.005817
      dyz     :     0.011915
      dx2y2   :     0.003004
      dxy     :     0.016456
      f0      :     0.000583  f :     0.003216
      f+1     :     0.000412
      f-1     :     0.000804
      f+2     :     0.000364
      f-2     :     0.000404
      f+3     :     0.000130
      f-3     :     0.000520

 11 C s       :     3.319461  s :     3.319461
      pz      :     0.981391  p :     2.962580
      px      :     0.912184
      py      :     1.069006
      dz2     :     0.019976  d :     0.083929
      dxz     :     0.017189
      dyz     :     0.013027
      dx2y2   :     0.021965
      dxy     :     0.011773
      f0      :     0.000453  f :     0.005023
      f+1     :     0.001013
      f-1     :     0.000472
      f+2     :     0.000769
      f-2     :     0.000673
      f+3     :     0.000805
      f-3     :     0.000838

 12 C s       :     3.254477  s :     3.254477
      pz      :     0.982187  p :     2.992851
      px      :     0.924118
      py      :     1.086546
      dz2     :     0.012401  d :     0.073392
      dxz     :     0.023364
      dyz     :     0.007628
      dx2y2   :     0.018545
      dxy     :     0.011454
      f0      :     0.000477  f :     0.004749
      f+1     :     0.001026
      f-1     :     0.000422
      f+2     :     0.000821
      f-2     :     0.000561
      f+3     :     0.000734
      f-3     :     0.000707

 13 C s       :     3.055115  s :     3.055115
      pz      :     0.770745  p :     2.229998
      px      :     0.753793
      py      :     0.705460
      dz2     :     0.058200  d :     0.278296
      dxz     :     0.101570
      dyz     :     0.060628
      dx2y2   :     0.018806
      dxy     :     0.039093
      f0      :     0.003994  f :     0.023187
      f+1     :     0.007689
      f-1     :     0.003420
      f+2     :     0.002040
      f-2     :     0.002217
      f+3     :     0.001411
      f-3     :     0.002416

 14 O s       :     3.819850  s :     3.819850
      pz      :     1.350108  p :     4.555029
      px      :     1.779132
      py      :     1.425789
      dz2     :     0.010465  d :     0.030024
      dxz     :     0.007690
      dyz     :     0.010620
      dx2y2   :     0.000682
      dxy     :     0.000567
      f0      :     0.000689  f :     0.002056
      f+1     :     0.000583
      f-1     :     0.000587
      f+2     :     0.000087
      f-2     :     0.000093
      f+3     :     0.000010
      f-3     :     0.000008

 15 O s       :     3.775174  s :     3.775174
      pz      :     1.561572  p :     4.464194
      px      :     1.180910
      py      :     1.721711
      dz2     :     0.005970  d :     0.036085
      dxz     :     0.014254
      dyz     :     0.003715
      dx2y2   :     0.006562
      dxy     :     0.005585
      f0      :     0.000127  f :     0.002064
      f+1     :     0.000322
      f-1     :     0.000034
      f+2     :     0.000535
      f-2     :     0.000202
      f+3     :     0.000479
      f-3     :     0.000365

 16 N s       :     3.693423  s :     3.693423
      pz      :     1.306661  p :     3.685137
      px      :     1.121563
      py      :     1.256913
      dz2     :     0.008392  d :     0.051445
      dxz     :     0.009910
      dyz     :     0.009486
      dx2y2   :     0.012763
      dxy     :     0.010895
      f0      :     0.000381  f :     0.003517
      f+1     :     0.000622
      f-1     :     0.000270
      f+2     :     0.000410
      f-2     :     0.000685
      f+3     :     0.000523
      f-3     :     0.000626

 17 C s       :     3.135453  s :     3.135453
      pz      :     0.817674  p :     2.457300
      px      :     0.775173
      py      :     0.864453
      dz2     :     0.030622  d :     0.130245
      dxz     :     0.021448
      dyz     :     0.023536
      dx2y2   :     0.032359
      dxy     :     0.022281
      f0      :     0.001316  f :     0.013000
      f+1     :     0.002277
      f-1     :     0.001086
      f+2     :     0.001287
      f-2     :     0.002928
      f+3     :     0.001875
      f-3     :     0.002231

 18 C s       :     3.146273  s :     3.146273
      pz      :     0.865932  p :     2.685142
      px      :     0.903506
      py      :     0.915704
      dz2     :     0.026332  d :     0.110443
      dxz     :     0.019843
      dyz     :     0.019243
      dx2y2   :     0.030512
      dxy     :     0.014512
      f0      :     0.000941  f :     0.008770
      f+1     :     0.001171
      f-1     :     0.001122
      f+2     :     0.001423
      f-2     :     0.001675
      f+3     :     0.001673
      f-3     :     0.000765

 19 C s       :     3.166251  s :     3.166251
      pz      :     0.945645  p :     2.680245
      px      :     0.909009
      py      :     0.825591
      dz2     :     0.017184  d :     0.092284
      dxz     :     0.019435
      dyz     :     0.014212
      dx2y2   :     0.019833
      dxy     :     0.021620
      f0      :     0.000970  f :     0.008905
      f+1     :     0.000954
      f-1     :     0.001293
      f+2     :     0.001377
      f-2     :     0.001439
      f+3     :     0.001677
      f-3     :     0.001196

 20 C s       :     3.158784  s :     3.158784
      pz      :     0.882744  p :     2.505045
      px      :     0.846551
      py      :     0.775751
      dz2     :     0.024498  d :     0.122510
      dxz     :     0.020606
      dyz     :     0.025351
      dx2y2   :     0.033670
      dxy     :     0.018384
      f0      :     0.001385  f :     0.012844
      f+1     :     0.002088
      f-1     :     0.000982
      f+2     :     0.001523
      f-2     :     0.002264
      f+3     :     0.001606
      f-3     :     0.002995

 21 C s       :     3.461155  s :     3.461155
      pz      :     1.000065  p :     3.071833
      px      :     1.002054
      py      :     1.069713
      dz2     :     0.017666  d :     0.052537
      dxz     :     0.006895
      dyz     :     0.006576
      dx2y2   :     0.014165
      dxy     :     0.007234
      f0      :     0.000398  f :     0.003095
      f+1     :     0.000575
      f-1     :     0.000511
      f+2     :     0.000450
      f-2     :     0.000405
      f+3     :     0.000188
      f-3     :     0.000568

 22 C s       :     3.279242  s :     3.279242
      pz      :     0.924828  p :     2.853293
      px      :     1.027453
      py      :     0.901012
      dz2     :     0.009575  d :     0.060793
      dxz     :     0.017348
      dyz     :     0.013859
      dx2y2   :     0.010078
      dxy     :     0.009934
      f0      :     0.001130  f :     0.006144
      f+1     :     0.000877
      f-1     :     0.000911
      f+2     :     0.000833
      f-2     :     0.001174
      f+3     :     0.000587
      f-3     :     0.000632

 23 C s       :     3.358711  s :     3.358711
      pz      :     0.914869  p :     2.978241
      px      :     1.018734
      py      :     1.044638
      dz2     :     0.006733  d :     0.038129
      dxz     :     0.012458
      dyz     :     0.011006
      dx2y2   :     0.003951
      dxy     :     0.003981
      f0      :     0.001031  f :     0.004406
      f+1     :     0.000835
      f-1     :     0.000639
      f+2     :     0.000503
      f-2     :     0.000840
      f+3     :     0.000463
      f-3     :     0.000097

 24 N s       :     3.692368  s :     3.692368
      pz      :     1.205224  p :     3.673126
      px      :     1.288440
      py      :     1.179462
      dz2     :     0.013015  d :     0.053253
      dxz     :     0.009033
      dyz     :     0.008546
      dx2y2   :     0.010868
      dxy     :     0.011790
      f0      :     0.000375  f :     0.003517
      f+1     :     0.000472
      f-1     :     0.000594
      f+2     :     0.000626
      f-2     :     0.000671
      f+3     :     0.000350
      f-3     :     0.000428

 25 C s       :     3.148157  s :     3.148157
      pz      :     0.880951  p :     2.542965
      px      :     0.845178
      py      :     0.816836
      dz2     :     0.032245  d :     0.123715
      dxz     :     0.020337
      dyz     :     0.012246
      dx2y2   :     0.028252
      dxy     :     0.030635
      f0      :     0.000999  f :     0.013005
      f+1     :     0.001635
      f-1     :     0.002337
      f+2     :     0.002756
      f-2     :     0.001685
      f+3     :     0.001490
      f-3     :     0.002103

 26 C s       :     3.130365  s :     3.130365
      pz      :     0.933162  p :     2.714976
      px      :     0.923134
      py      :     0.858680
      dz2     :     0.025281  d :     0.109622
      dxz     :     0.016130
      dyz     :     0.017915
      dx2y2   :     0.032634
      dxy     :     0.017662
      f0      :     0.000865  f :     0.008816
      f+1     :     0.001122
      f-1     :     0.001282
      f+2     :     0.001251
      f-2     :     0.001528
      f+3     :     0.001083
      f-3     :     0.001684

 27 C s       :     3.246952  s :     3.246952
      pz      :     0.838548  p :     2.653751
      px      :     0.860970
      py      :     0.954232
      dz2     :     0.027206  d :     0.108063
      dxz     :     0.019281
      dyz     :     0.014620
      dx2y2   :     0.020852
      dxy     :     0.026104
      f0      :     0.001142  f :     0.008922
      f+1     :     0.001274
      f-1     :     0.001064
      f+2     :     0.001068
      f-2     :     0.001919
      f+3     :     0.001209
      f-3     :     0.001245

 28 C s       :     3.124813  s :     3.124813
      pz      :     0.880579  p :     2.502533
      px      :     0.795014
      py      :     0.826940
      dz2     :     0.032477  d :     0.116174
      dxz     :     0.020621
      dyz     :     0.011900
      dx2y2   :     0.027494
      dxy     :     0.023681
      f0      :     0.001637  f :     0.012874
      f+1     :     0.001479
      f-1     :     0.001989
      f+2     :     0.001853
      f-2     :     0.002647
      f+3     :     0.002008
      f-3     :     0.001262

 29 C s       :     3.433985  s :     3.433985
      pz      :     1.075297  p :     3.060171
      px      :     1.028025
      py      :     0.956849
      dz2     :     0.012797  d :     0.053318
      dxz     :     0.007222
      dyz     :     0.007936
      dx2y2   :     0.015752
      dxy     :     0.009611
      f0      :     0.000720  f :     0.003081
      f+1     :     0.000183
      f-1     :     0.000289
      f+2     :     0.000289
      f-2     :     0.000390
      f+3     :     0.000738
      f-3     :     0.000472

 30 C s       :     3.412110  s :     3.412110
      pz      :     0.930952  p :     2.938913
      px      :     0.950797
      py      :     1.057165
      dz2     :     0.021835  d :     0.089099
      dxz     :     0.027425
      dyz     :     0.011366
      dx2y2   :     0.015899
      dxy     :     0.012574
      f0      :     0.000934  f :     0.004809
      f+1     :     0.000929
      f-1     :     0.000579
      f+2     :     0.000785
      f-2     :     0.000767
      f+3     :     0.000316
      f-3     :     0.000500

 31 C s       :     3.297463  s :     3.297463
      pz      :     0.938025  p :     3.057790
      px      :     1.078655
      py      :     1.041110
      dz2     :     0.009671  d :     0.052958
      dxz     :     0.020312
      dyz     :     0.006279
      dx2y2   :     0.012137
      dxy     :     0.004558
      f0      :     0.000716  f :     0.003207
      f+1     :     0.000483
      f-1     :     0.000521
      f+2     :     0.000603
      f-2     :     0.000391
      f+3     :     0.000178
      f-3     :     0.000316

 32 N s       :     3.748335  s :     3.748335
      pz      :     1.298165  p :     3.664955
      px      :     1.105254
      py      :     1.261536
      dz2     :     0.007957  d :     0.052037
      dxz     :     0.010707
      dyz     :     0.009435
      dx2y2   :     0.013146
      dxy     :     0.010792
      f0      :     0.000376  f :     0.003497
      f+1     :     0.000597
      f-1     :     0.000298
      f+2     :     0.000421
      f-2     :     0.000662
      f+3     :     0.000491
      f-3     :     0.000651

 33 C s       :     3.147034  s :     3.147034
      pz      :     0.863558  p :     2.554556
      px      :     0.842094
      py      :     0.848904
      dz2     :     0.025535  d :     0.113152
      dxz     :     0.019529
      dyz     :     0.021558
      dx2y2   :     0.025178
      dxy     :     0.021352
      f0      :     0.001246  f :     0.012720
      f+1     :     0.002098
      f-1     :     0.001170
      f+2     :     0.001265
      f-2     :     0.002868
      f+3     :     0.002118
      f-3     :     0.001955

 34 C s       :     3.256936  s :     3.256936
      pz      :     0.870677  p :     2.635361
      px      :     0.883005
      py      :     0.881679
      dz2     :     0.019463  d :     0.117107
      dxz     :     0.023388
      dyz     :     0.022706
      dx2y2   :     0.033571
      dxy     :     0.017978
      f0      :     0.000842  f :     0.008646
      f+1     :     0.001260
      f-1     :     0.001259
      f+2     :     0.001575
      f-2     :     0.001405
      f+3     :     0.001377
      f-3     :     0.000928

 35 C s       :     3.119114  s :     3.119114
      pz      :     1.010958  p :     2.793306
      px      :     0.865900
      py      :     0.916448
      dz2     :     0.018654  d :     0.084434
      dxz     :     0.015936
      dyz     :     0.011888
      dx2y2   :     0.015935
      dxy     :     0.022021
      f0      :     0.001045  f :     0.009936
      f+1     :     0.001299
      f-1     :     0.001098
      f+2     :     0.001178
      f-2     :     0.001571
      f+3     :     0.001905
      f-3     :     0.001840

 36 C s       :     3.231418  s :     3.231418
      pz      :     0.839567  p :     2.403732
      px      :     0.866094
      py      :     0.698071
      dz2     :     0.025285  d :     0.137475
      dxz     :     0.024135
      dyz     :     0.028331
      dx2y2   :     0.040074
      dxy     :     0.019651
      f0      :     0.001605  f :     0.014633
      f+1     :     0.001968
      f-1     :     0.001310
      f+2     :     0.001465
      f-2     :     0.002513
      f+3     :     0.002211
      f-3     :     0.003559

 37 C s       :     3.443379  s :     3.443379
      pz      :     0.985670  p :     3.056938
      px      :     1.010971
      py      :     1.060297
      dz2     :     0.010222  d :     0.050104
      dxz     :     0.009379
      dyz     :     0.013010
      dx2y2   :     0.009731
      dxy     :     0.007762
      f0      :     0.000326  f :     0.003039
      f+1     :     0.000392
      f-1     :     0.000307
      f+2     :     0.000770
      f-2     :     0.000652
      f+3     :     0.000361
      f-3     :     0.000231

 38 C s       :     3.170684  s :     3.170684
      pz      :     0.773566  p :     2.449719
      px      :     0.866186
      py      :     0.809967
      dz2     :     0.040178  d :     0.213833
      dxz     :     0.040937
      dyz     :     0.033157
      dx2y2   :     0.044474
      dxy     :     0.055087
      f0      :     0.001560  f :     0.016457
      f+1     :     0.000940
      f-1     :     0.003519
      f+2     :     0.002030
      f-2     :     0.003807
      f+3     :     0.002644
      f-3     :     0.001957

 39 O s       :     3.805160  s :     3.805160
      pz      :     1.405449  p :     4.512307
      px      :     1.707347
      py      :     1.399511
      dz2     :     0.007582  d :     0.030071
      dxz     :     0.003142
      dyz     :     0.007943
      dx2y2   :     0.005704
      dxy     :     0.005701
      f0      :     0.000176  f :     0.001928
      f+1     :     0.000035
      f-1     :     0.000527
      f+2     :     0.000387
      f-2     :     0.000284
      f+3     :     0.000270
      f-3     :     0.000247

 40 C s       :     3.174760  s :     3.174760
      pz      :     0.963015  p :     2.933006
      px      :     1.071915
      py      :     0.898077
      dz2     :     0.014554  d :     0.093758
      dxz     :     0.021295
      dyz     :     0.020865
      dx2y2   :     0.022367
      dxy     :     0.014678
      f0      :     0.000531  f :     0.005805
      f+1     :     0.000496
      f-1     :     0.001041
      f+2     :     0.001375
      f-2     :     0.000894
      f+3     :     0.000790
      f-3     :     0.000679

 41 C s       :     3.058668  s :     3.058668
      pz      :     0.749470  p :     2.268201
      px      :     0.707225
      py      :     0.811506
      dz2     :     0.062698  d :     0.277329
      dxz     :     0.054613
      dyz     :     0.081876
      dx2y2   :     0.047766
      dxy     :     0.030375
      f0      :     0.003483  f :     0.023430
      f+1     :     0.003755
      f-1     :     0.005344
      f+2     :     0.003356
      f-2     :     0.003226
      f+3     :     0.002288
      f-3     :     0.001979

 42 O s       :     3.816350  s :     3.816350
      pz      :     1.351488  p :     4.536832
      px      :     1.496620
      py      :     1.688724
      dz2     :     0.010632  d :     0.030093
      dxz     :     0.008656
      dyz     :     0.006732
      dx2y2   :     0.001902
      dxy     :     0.002171
      f0      :     0.000633  f :     0.002064
      f+1     :     0.000495
      f-1     :     0.000346
      f+2     :     0.000241
      f-2     :     0.000241
      f+3     :     0.000045
      f-3     :     0.000065

 43 O s       :     3.777358  s :     3.777358
      pz      :     1.608976  p :     4.453215
      px      :     1.556200
      py      :     1.288039
      dz2     :     0.005323  d :     0.037351
      dxz     :     0.006238
      dyz     :     0.011060
      dx2y2   :     0.007191
      dxy     :     0.007539
      f0      :     0.000189  f :     0.002122
      f+1     :     0.000154
      f-1     :     0.000226
      f+2     :     0.000318
      f-2     :     0.000405
      f+3     :     0.000427
      f-3     :     0.000404

 44 C s       :     3.291479  s :     3.291479
      pz      :     1.015479  p :     2.899493
      px      :     1.108651
      py      :     0.775363
      dz2     :     0.018594  d :     0.085713
      dxz     :     0.013314
      dyz     :     0.018076
      dx2y2   :     0.013608
      dxy     :     0.022122
      f0      :     0.000452  f :     0.006947
      f+1     :     0.000473
      f-1     :     0.001650
      f+2     :     0.000931
      f-2     :     0.001171
      f+3     :     0.001002
      f-3     :     0.001268

 45 C s       :     3.275046  s :     3.275046
      pz      :     0.873380  p :     2.772622
      px      :     0.793156
      py      :     1.106086
      dz2     :     0.018739  d :     0.117139
      dxz     :     0.026961
      dyz     :     0.029827
      dx2y2   :     0.021344
      dxy     :     0.020268
      f0      :     0.000671  f :     0.008510
      f+1     :     0.002230
      f-1     :     0.000233
      f+2     :     0.001618
      f-2     :     0.001694
      f+3     :     0.000873
      f-3     :     0.001192

 46 C s       :     3.182345  s :     3.182345
      pz      :     1.006000  p :     2.911085
      px      :     0.934885
      py      :     0.970200
      dz2     :     0.004126  d :     0.061589
      dxz     :     0.013121
      dyz     :     0.018583
      dx2y2   :     0.018442
      dxy     :     0.007317
      f0      :     0.000884  f :     0.006500
      f+1     :     0.000802
      f-1     :     0.000248
      f+2     :     0.000780
      f-2     :     0.001441
      f+3     :     0.000967
      f-3     :     0.001379

 47 C s       :     3.191786  s :     3.191786
      pz      :     0.860372  p :     2.648552
      px      :     0.927541
      py      :     0.860638
      dz2     :     0.010854  d :     0.095845
      dxz     :     0.020390
      dyz     :     0.024112
      dx2y2   :     0.030640
      dxy     :     0.009849
      f0      :     0.000919  f :     0.008207
      f+1     :     0.000857
      f-1     :     0.000892
      f+2     :     0.000846
      f-2     :     0.001743
      f+3     :     0.001335
      f-3     :     0.001616

 48 C s       :     3.376559  s :     3.376559
      pz      :     1.044596  p :     3.078526
      px      :     1.091978
      py      :     0.941952
      dz2     :     0.005730  d :     0.048063
      dxz     :     0.010103
      dyz     :     0.013659
      dx2y2   :     0.009886
      dxy     :     0.008686
      f0      :     0.000171  f :     0.002970
      f+1     :     0.000260
      f-1     :     0.000503
      f+2     :     0.000890
      f-2     :     0.000358
      f+3     :     0.000452
      f-3     :     0.000338

 49 C s       :     3.320504  s :     3.320504
      pz      :     0.931176  p :     2.936585
      px      :     0.898385
      py      :     1.107024
      dz2     :     0.012064  d :     0.083726
      dxz     :     0.016103
      dyz     :     0.026499
      dx2y2   :     0.017245
      dxy     :     0.011815
      f0      :     0.000280  f :     0.004825
      f+1     :     0.001130
      f-1     :     0.000138
      f+2     :     0.001205
      f-2     :     0.000772
      f+3     :     0.000532
      f-3     :     0.000768

 50 C s       :     3.282304  s :     3.282304
      pz      :     0.944981  p :     2.946568
      px      :     0.922361
      py      :     1.079226
      dz2     :     0.012236  d :     0.085832
      dxz     :     0.016105
      dyz     :     0.028458
      dx2y2   :     0.017395
      dxy     :     0.011638
      f0      :     0.000285  f :     0.005057
      f+1     :     0.001222
      f-1     :     0.000143
      f+2     :     0.001171
      f-2     :     0.000943
      f+3     :     0.000543
      f-3     :     0.000749

 51 C s       :     3.295698  s :     3.295698
      pz      :     0.949413  p :     2.952047
      px      :     0.911190
      py      :     1.091444
      dz2     :     0.011380  d :     0.085235
      dxz     :     0.015018
      dyz     :     0.030021
      dx2y2   :     0.017433
      dxy     :     0.011382
      f0      :     0.000303  f :     0.005053
      f+1     :     0.001145
      f-1     :     0.000165
      f+2     :     0.001186
      f-2     :     0.000870
      f+3     :     0.000564
      f-3     :     0.000819

 52 C s       :     3.175027  s :     3.175027
      pz      :     0.899696  p :     2.756681
      px      :     0.901436
      py      :     0.955549
      dz2     :     0.018495  d :     0.120439
      dxz     :     0.026057
      dyz     :     0.031363
      dx2y2   :     0.026283
      dxy     :     0.018241
      f0      :     0.000540  f :     0.006728
      f+1     :     0.001214
      f-1     :     0.000727
      f+2     :     0.001290
      f-2     :     0.001352
      f+3     :     0.000726
      f-3     :     0.000879

 53 C s       :     3.346354  s :     3.346354
      pz      :     1.029786  p :     3.103348
      px      :     1.096253
      py      :     0.977308
      dz2     :     0.006686  d :     0.052175
      dxz     :     0.015760
      dyz     :     0.009715
      dx2y2   :     0.015071
      dxy     :     0.004944
      f0      :     0.000292  f :     0.003169
      f+1     :     0.000157
      f-1     :     0.000611
      f+2     :     0.001084
      f-2     :     0.000430
      f+3     :     0.000300
      f-3     :     0.000295

 54 C s       :     3.296022  s :     3.296022
      pz      :     0.946965  p :     2.943951
      px      :     0.914579
      py      :     1.082408
      dz2     :     0.010619  d :     0.085909
      dxz     :     0.016832
      dyz     :     0.029791
      dx2y2   :     0.016026
      dxy     :     0.012641
      f0      :     0.000390  f :     0.005066
      f+1     :     0.001078
      f-1     :     0.000188
      f+2     :     0.001153
      f-2     :     0.000866
      f+3     :     0.000599
      f-3     :     0.000793

 55 C s       :     3.279776  s :     3.279776
      pz      :     0.945551  p :     2.949788
      px      :     0.937313
      py      :     1.066923
      dz2     :     0.011751  d :     0.085456
      dxz     :     0.016823
      dyz     :     0.028153
      dx2y2   :     0.015965
      dxy     :     0.012764
      f0      :     0.000430  f :     0.005062
      f+1     :     0.001049
      f-1     :     0.000213
      f+2     :     0.001185
      f-2     :     0.000908
      f+3     :     0.000575
      f-3     :     0.000703

 56 C s       :     3.298927  s :     3.298927
      pz      :     0.941516  p :     2.944998
      px      :     0.922972
      py      :     1.080510
      dz2     :     0.010851  d :     0.085909
      dxz     :     0.016431
      dyz     :     0.030484
      dx2y2   :     0.016495
      dxy     :     0.011647
      f0      :     0.000488  f :     0.005068
      f+1     :     0.000956
      f-1     :     0.000227
      f+2     :     0.001118
      f-2     :     0.000924
      f+3     :     0.000654
      f-3     :     0.000702

 57 C s       :     3.172267  s :     3.172267
      pz      :     0.908147  p :     2.754000
      px      :     0.895978
      py      :     0.949875
      dz2     :     0.018141  d :     0.120508
      dxz     :     0.024925
      dyz     :     0.032171
      dx2y2   :     0.025821
      dxy     :     0.019450
      f0      :     0.000652  f :     0.006728
      f+1     :     0.001003
      f-1     :     0.000856
      f+2     :     0.001411
      f-2     :     0.001073
      f+3     :     0.000772
      f-3     :     0.000962

 58 C s       :     3.346078  s :     3.346078
      pz      :     1.042845  p :     3.105582
      px      :     1.074814
      py      :     0.987924
      dz2     :     0.007316  d :     0.052317
      dxz     :     0.011836
      dyz     :     0.012064
      dx2y2   :     0.014914
      dxy     :     0.006187
      f0      :     0.000218  f :     0.003173
      f+1     :     0.000319
      f-1     :     0.000569
      f+2     :     0.000835
      f-2     :     0.000496
      f+3     :     0.000288
      f-3     :     0.000449

 59 C s       :     3.297114  s :     3.297114
      pz      :     0.947978  p :     2.944047
      px      :     0.941443
      py      :     1.054627
      dz2     :     0.010469  d :     0.085911
      dxz     :     0.018991
      dyz     :     0.028024
      dx2y2   :     0.013385
      dxy     :     0.015042
      f0      :     0.000630  f :     0.005066
      f+1     :     0.000776
      f-1     :     0.000352
      f+2     :     0.000955
      f-2     :     0.000949
      f+3     :     0.000793
      f-3     :     0.000611

 60 C s       :     3.282958  s :     3.282958
      pz      :     0.950880  p :     2.949965
      px      :     0.949366
      py      :     1.049719
      dz2     :     0.011944  d :     0.085886
      dxz     :     0.019637
      dyz     :     0.025525
      dx2y2   :     0.013995
      dxy     :     0.014786
      f0      :     0.000686  f :     0.005075
      f+1     :     0.000715
      f-1     :     0.000432
      f+2     :     0.000991
      f-2     :     0.000920
      f+3     :     0.000784
      f-3     :     0.000547

 61 C s       :     3.275270  s :     3.275270
      pz      :     0.946654  p :     2.944406
      px      :     0.942873
      py      :     1.054880
      dz2     :     0.011522  d :     0.086719
      dxz     :     0.018398
      dyz     :     0.027446
      dx2y2   :     0.012276
      dxy     :     0.017077
      f0      :     0.000705  f :     0.005046
      f+1     :     0.000637
      f-1     :     0.000458
      f+2     :     0.001054
      f-2     :     0.000805
      f+3     :     0.000747
      f-3     :     0.000640

 62 C s       :     3.169670  s :     3.169670
      pz      :     0.908083  p :     2.778364
      px      :     0.916150
      py      :     0.954132
      dz2     :     0.023615  d :     0.121901
      dxz     :     0.024441
      dyz     :     0.027108
      dx2y2   :     0.019935
      dxy     :     0.026802
      f0      :     0.001032  f :     0.006740
      f+1     :     0.000705
      f-1     :     0.001021
      f+2     :     0.001041
      f-2     :     0.001253
      f+3     :     0.000981
      f-3     :     0.000706

 63 C s       :     3.328458  s :     3.328458
      pz      :     1.024387  p :     3.096801
      px      :     1.091201
      py      :     0.981212
      dz2     :     0.013702  d :     0.053791
      dxz     :     0.008715
      dyz     :     0.007685
      dx2y2   :     0.009378
      dxy     :     0.014310
      f0      :     0.000331  f :     0.003210
      f+1     :     0.000339
      f-1     :     0.000677
      f+2     :     0.000432
      f-2     :     0.000635
      f+3     :     0.000482
      f-3     :     0.000314

 64 C s       :     3.334410  s :     3.334410
      pz      :     0.971350  p :     3.076290
      px      :     1.035378
      py      :     1.069562
      dz2     :     0.009447  d :     0.054746
      dxz     :     0.007005
      dyz     :     0.021518
      dx2y2   :     0.011119
      dxy     :     0.005657
      f0      :     0.000640  f :     0.003242
      f+1     :     0.000463
      f-1     :     0.000399
      f+2     :     0.000709
      f-2     :     0.000528
      f+3     :     0.000271
      f-3     :     0.000232

 65 H s       :     0.786504  s :     0.786504
      pz      :     0.008839  p :     0.021370
      px      :     0.008903
      py      :     0.003628

 66 H s       :     0.776382  s :     0.776382
      pz      :     0.004826  p :     0.021587
      px      :     0.005804
      py      :     0.010957

 67 H s       :     0.762718  s :     0.762718
      pz      :     0.007845  p :     0.020999
      px      :     0.009605
      py      :     0.003548

 68 H s       :     0.749381  s :     0.749381
      pz      :     0.003999  p :     0.020133
      px      :     0.003523
      py      :     0.012611

 69 H s       :     0.801154  s :     0.801154
      pz      :     0.003596  p :     0.020292
      px      :     0.010834
      py      :     0.005862

 70 H s       :     0.815738  s :     0.815738
      pz      :     0.003705  p :     0.018957
      px      :     0.007839
      py      :     0.007413

 71 H s       :     0.819283  s :     0.819283
      pz      :     0.009355  p :     0.019243
      px      :     0.003651
      py      :     0.006237

 72 H s       :     0.814139  s :     0.814139
      pz      :     0.003613  p :     0.018963
      px      :     0.009471
      py      :     0.005880

 73 H s       :     0.792986  s :     0.792986
      pz      :     0.011068  p :     0.020151
      px      :     0.003906
      py      :     0.005176

 74 H s       :     0.790508  s :     0.790508
      pz      :     0.003992  p :     0.019186
      px      :     0.003429
      py      :     0.011765

 75 H s       :     0.796870  s :     0.796870
      pz      :     0.010751  p :     0.020202
      px      :     0.004198
      py      :     0.005253

 76 H s       :     0.786190  s :     0.786190
      pz      :     0.004172  p :     0.019757
      px      :     0.003543
      py      :     0.012042

 77 H s       :     0.817787  s :     0.817787
      pz      :     0.004088  p :     0.019686
      px      :     0.010959
      py      :     0.004638

 78 H s       :     0.798122  s :     0.798122
      pz      :     0.003678  p :     0.019428
      px      :     0.003612
      py      :     0.012139

 79 H s       :     0.782413  s :     0.782413
      pz      :     0.010569  p :     0.018967
      px      :     0.003822
      py      :     0.004576

 80 H s       :     0.814665  s :     0.814665
      pz      :     0.006828  p :     0.020296
      px      :     0.007573
      py      :     0.005895

 81 H s       :     0.819334  s :     0.819334
      pz      :     0.003653  p :     0.020030
      px      :     0.005606
      py      :     0.010770

 82 H s       :     0.804301  s :     0.804301
      pz      :     0.007850  p :     0.020287
      px      :     0.007158
      py      :     0.005279

 83 H s       :     0.795916  s :     0.795916
      pz      :     0.004268  p :     0.018921
      px      :     0.005066
      py      :     0.009587

 84 H s       :     0.821565  s :     0.821565
      pz      :     0.005412  p :     0.019900
      px      :     0.010780
      py      :     0.003708

 85 H s       :     0.808143  s :     0.808143
      pz      :     0.011387  p :     0.018949
      px      :     0.003859
      py      :     0.003704

 86 H s       :     0.817452  s :     0.817452
      pz      :     0.003709  p :     0.019588
      px      :     0.004388
      py      :     0.011491

 87 H s       :     0.814477  s :     0.814477
      pz      :     0.005239  p :     0.019767
      px      :     0.009389
      py      :     0.005139

 88 H s       :     0.829550  s :     0.829550
      pz      :     0.006827  p :     0.018990
      px      :     0.008492
      py      :     0.003671

 89 H s       :     0.830716  s :     0.830716
      pz      :     0.003653  p :     0.018971
      px      :     0.004056
      py      :     0.011263

 90 H s       :     0.830311  s :     0.830311
      pz      :     0.005640  p :     0.019057
      px      :     0.008464
      py      :     0.004953

 91 H s       :     0.800964  s :     0.800964
      pz      :     0.007848  p :     0.019028
      px      :     0.004091
      py      :     0.007089

 92 H s       :     0.812255  s :     0.812255
      pz      :     0.005597  p :     0.019834
      px      :     0.004601
      py      :     0.009635

 93 H s       :     0.796557  s :     0.796557
      pz      :     0.004930  p :     0.019072
      px      :     0.009924
      py      :     0.004218

 94 H s       :     0.772773  s :     0.772773
      pz      :     0.007347  p :     0.021078
      px      :     0.010243
      py      :     0.003489

 95 H s       :     0.818051  s :     0.818051
      pz      :     0.011170  p :     0.018546
      px      :     0.004874
      py      :     0.002502

 96 H s       :     0.813954  s :     0.813954
      pz      :     0.003414  p :     0.018647
      px      :     0.009963
      py      :     0.005271

 97 H s       :     0.815132  s :     0.815132
      pz      :     0.006015  p :     0.019030
      px      :     0.007710
      py      :     0.005305

 98 H s       :     0.811253  s :     0.811253
      pz      :     0.007495  p :     0.019167
      px      :     0.002759
      py      :     0.008914

 99 H s       :     0.827131  s :     0.827131
      pz      :     0.006569  p :     0.020282
      px      :     0.003067
      py      :     0.010646

100 H s       :     0.814516  s :     0.814516
      pz      :     0.006626  p :     0.020288
      px      :     0.003693
      py      :     0.009969

101 H s       :     0.812290  s :     0.812290
      pz      :     0.006489  p :     0.019134
      px      :     0.004056
      py      :     0.008589

102 H s       :     0.800190  s :     0.800190
      pz      :     0.008439  p :     0.019393
      px      :     0.007134
      py      :     0.003820

103 H s       :     0.822386  s :     0.822386
      pz      :     0.005038  p :     0.020041
      px      :     0.010852
      py      :     0.004151

104 H s       :     0.805713  s :     0.805713
      pz      :     0.007406  p :     0.019007
      px      :     0.003586
      py      :     0.008015

105 H s       :     0.817809  s :     0.817809
      pz      :     0.006397  p :     0.019467
      px      :     0.003554
      py      :     0.009516

106 H s       :     0.819312  s :     0.819312
      pz      :     0.007721  p :     0.019470
      px      :     0.003580
      py      :     0.008169

107 H s       :     0.815205  s :     0.815205
      pz      :     0.006360  p :     0.019298
      px      :     0.003608
      py      :     0.009331

108 H s       :     0.824569  s :     0.824569
      pz      :     0.007857  p :     0.019141
      px      :     0.003628
      py      :     0.007655

109 H s       :     0.818637  s :     0.818637
      pz      :     0.005949  p :     0.018761
      px      :     0.003526
      py      :     0.009286

110 H s       :     0.835988  s :     0.835988
      pz      :     0.006252  p :     0.019248
      px      :     0.003538
      py      :     0.009458

111 H s       :     0.821901  s :     0.821901
      pz      :     0.007444  p :     0.019436
      px      :     0.008187
      py      :     0.003805

112 H s       :     0.822155  s :     0.822155
      pz      :     0.006059  p :     0.019422
      px      :     0.009619
      py      :     0.003744

113 H s       :     0.829285  s :     0.829285
      pz      :     0.005444  p :     0.018708
      px      :     0.003653
      py      :     0.009611

114 H s       :     0.826251  s :     0.826251
      pz      :     0.007382  p :     0.019101
      px      :     0.003927
      py      :     0.007793

115 H s       :     0.823172  s :     0.823172
      pz      :     0.006270  p :     0.018740
      px      :     0.003524
      py      :     0.008946

116 H s       :     0.819540  s :     0.819540
      pz      :     0.007097  p :     0.019868
      px      :     0.004287
      py      :     0.008485

117 H s       :     0.828457  s :     0.828457
      pz      :     0.006739  p :     0.018833
      px      :     0.003520
      py      :     0.008573

118 H s       :     0.826542  s :     0.826542
      pz      :     0.007054  p :     0.019090
      px      :     0.004342
      py      :     0.007694

119 H s       :     0.823376  s :     0.823376
      pz      :     0.006440  p :     0.018746
      px      :     0.003562
      py      :     0.008744

120 H s       :     0.837444  s :     0.837444
      pz      :     0.006673  p :     0.019242
      px      :     0.003619
      py      :     0.008950

121 H s       :     0.829286  s :     0.829286
      pz      :     0.005818  p :     0.018700
      px      :     0.003769
      py      :     0.009113

122 H s       :     0.823388  s :     0.823388
      pz      :     0.008627  p :     0.019416
      px      :     0.006481
      py      :     0.004308

123 H s       :     0.820907  s :     0.820907
      pz      :     0.004988  p :     0.019415
      px      :     0.010335
      py      :     0.004093

124 H s       :     0.827291  s :     0.827291
      pz      :     0.006553  p :     0.019098
      px      :     0.005381
      py      :     0.007164

125 H s       :     0.822579  s :     0.822579
      pz      :     0.006693  p :     0.018744
      px      :     0.003632
      py      :     0.008419

126 H s       :     0.825531  s :     0.825531
      pz      :     0.006025  p :     0.019312
      px      :     0.005767
      py      :     0.007520

127 H s       :     0.823356  s :     0.823356
      pz      :     0.007381  p :     0.019272
      px      :     0.003705
      py      :     0.008185

128 H s       :     0.824520  s :     0.824520
      pz      :     0.005485  p :     0.018724
      px      :     0.005435
      py      :     0.007804

129 H s       :     0.832210  s :     0.832210
      pz      :     0.007591  p :     0.019031
      px      :     0.003630
      py      :     0.007810

130 H s       :     0.848481  s :     0.848481
      pz      :     0.005481  p :     0.019312
      px      :     0.005377
      py      :     0.008453

131 H s       :     0.832466  s :     0.832466
      pz      :     0.004764  p :     0.018678
      px      :     0.005425
      py      :     0.008489

132 H s       :     0.828096  s :     0.828096
      pz      :     0.004095  p :     0.018968
      px      :     0.010259
      py      :     0.004614

133 H s       :     0.824714  s :     0.824714
      pz      :     0.009986  p :     0.019262
      px      :     0.005324
      py      :     0.003952

134 H s       :     0.831222  s :     0.831222
      pz      :     0.006942  p :     0.018883
      px      :     0.003694
      py      :     0.008247

135 H s       :     0.829032  s :     0.829032
      pz      :     0.003882  p :     0.018966
      px      :     0.010759
      py      :     0.004325

136 H s       :     0.833706  s :     0.833706
      pz      :     0.005812  p :     0.018680
      px      :     0.004900
      py      :     0.007968



                     *******************************
                     * LOEWDIN POPULATION ANALYSIS *
                     *******************************

----------------------
LOEWDIN ATOMIC CHARGES
----------------------
   0 Mg:    0.310594
   1 C :   -0.080883
   2 C :   -0.124132
   3 C :   -0.076165
   4 C :   -0.057839
   5 N :    0.207314
   6 C :   -0.129496
   7 C :   -0.168357
   8 C :   -0.191886
   9 C :   -0.161350
  10 C :   -0.268805
  11 C :   -0.218217
  12 C :   -0.218112
  13 C :   -0.464360
  14 O :    0.070701
  15 O :    0.239545
  16 N :    0.171126
  17 C :   -0.162204
  18 C :   -0.101038
  19 C :   -0.089811
  20 C :   -0.166212
  21 C :   -0.260075
  22 C :   -0.167082
  23 C :   -0.186978
  24 N :    0.179789
  25 C :   -0.177728
  26 C :   -0.126263
  27 C :   -0.100085
  28 C :   -0.178863
  29 C :   -0.262656
  30 C :   -0.249937
  31 C :   -0.302865
  32 N :    0.186179
  33 C :   -0.169987
  34 C :   -0.078197
  35 C :   -0.086779
  36 C :   -0.147168
  37 C :   -0.252447
  38 C :   -0.240928
  39 O :    0.089501
  40 C :   -0.110624
  41 C :   -0.457779
  42 O :    0.086710
  43 O :    0.238683
  44 C :   -0.297323
  45 C :   -0.257636
  46 C :   -0.176227
  47 C :   -0.192125
  48 C :   -0.261651
  49 C :   -0.225885
  50 C :   -0.260775
  51 C :   -0.250786
  52 C :   -0.291391
  53 C :   -0.293211
  54 C :   -0.252202
  55 C :   -0.270918
  56 C :   -0.252404
  57 C :   -0.292043
  58 C :   -0.293891
  59 C :   -0.252590
  60 C :   -0.271622
  61 C :   -0.255332
  62 C :   -0.319732
  63 C :   -0.297567
  64 C :   -0.298432
  65 H :    0.166777
  66 H :    0.166949
  67 H :    0.169991
  68 H :    0.173373
  69 H :    0.168808
  70 H :    0.128548
  71 H :    0.127082
  72 H :    0.131683
  73 H :    0.148992
  74 H :    0.153889
  75 H :    0.157106
  76 H :    0.167014
  77 H :    0.134114
  78 H :    0.138449
  79 H :    0.139940
  80 H :    0.157638
  81 H :    0.129001
  82 H :    0.129042
  83 H :    0.137199
  84 H :    0.133716
  85 H :    0.135715
  86 H :    0.146900
  87 H :    0.147149
  88 H :    0.122320
  89 H :    0.122954
  90 H :    0.122189
  91 H :    0.141373
  92 H :    0.137788
  93 H :    0.142564
  94 H :    0.184099
  95 H :    0.116604
  96 H :    0.118170
  97 H :    0.120488
  98 H :    0.139636
  99 H :    0.135230
 100 H :    0.151352
 101 H :    0.136197
 102 H :    0.136209
 103 H :    0.128321
 104 H :    0.148629
 105 H :    0.147282
 106 H :    0.139434
 107 H :    0.141082
 108 H :    0.142459
 109 H :    0.142004
 110 H :    0.153839
 111 H :    0.121688
 112 H :    0.121817
 113 H :    0.125468
 114 H :    0.141257
 115 H :    0.141346
 116 H :    0.136282
 117 H :    0.140103
 118 H :    0.141124
 119 H :    0.141170
 120 H :    0.153281
 121 H :    0.125395
 122 H :    0.121384
 123 H :    0.121636
 124 H :    0.141629
 125 H :    0.140864
 126 H :    0.138453
 127 H :    0.138744
 128 H :    0.140487
 129 H :    0.141724
 130 H :    0.151038
 131 H :    0.124041
 132 H :    0.122994
 133 H :    0.120798
 134 H :    0.121845
 135 H :    0.122007
 136 H :    0.123033

-------------------------------
LOEWDIN REDUCED ORBITAL CHARGES
-------------------------------
  0 Mgs       :     4.239023  s :     4.239023
      pz      :     2.219206  p :     6.712570
      px      :     2.250158
      py      :     2.243206
      dz2     :     0.134822  d :     0.737813
      dxz     :     0.087355
      dyz     :     0.187401
      dx2y2   :     0.156168
      dxy     :     0.172068

  1 C s       :     2.679980  s :     2.679980
      pz      :     0.957645  p :     2.859154
      px      :     0.969876
      py      :     0.931632
      dz2     :     0.088123  d :     0.485644
      dxz     :     0.102206
      dyz     :     0.086213
      dx2y2   :     0.109866
      dxy     :     0.099237
      f0      :     0.005504  f :     0.056105
      f+1     :     0.007145
      f-1     :     0.007866
      f+2     :     0.012494
      f-2     :     0.006686
      f+3     :     0.007957
      f-3     :     0.008454

  2 C s       :     2.741779  s :     2.741779
      pz      :     0.988090  p :     2.988208
      px      :     0.994019
      py      :     1.006099
      dz2     :     0.046811  d :     0.354772
      dxz     :     0.075414
      dyz     :     0.062081
      dx2y2   :     0.088167
      dxy     :     0.082299
      f0      :     0.004463  f :     0.039373
      f+1     :     0.002672
      f-1     :     0.006213
      f+2     :     0.005032
      f-2     :     0.006985
      f+3     :     0.008192
      f-3     :     0.005817

  3 C s       :     2.745267  s :     2.745267
      pz      :     0.960693  p :     2.924957
      px      :     0.995161
      py      :     0.969102
      dz2     :     0.077232  d :     0.366581
      dxz     :     0.084830
      dyz     :     0.047667
      dx2y2   :     0.069237
      dxy     :     0.087614
      f0      :     0.004718  f :     0.039360
      f+1     :     0.006403
      f-1     :     0.004011
      f+2     :     0.007783
      f-2     :     0.005421
      f+3     :     0.005699
      f-3     :     0.005324

  4 C s       :     2.750282  s :     2.750282
      pz      :     0.931692  p :     2.892692
      px      :     0.981216
      py      :     0.979784
      dz2     :     0.045482  d :     0.375197
      dxz     :     0.081723
      dyz     :     0.062284
      dx2y2   :     0.102537
      dxy     :     0.083170
      f0      :     0.004879  f :     0.039669
      f+1     :     0.002428
      f-1     :     0.005952
      f+2     :     0.004779
      f-2     :     0.006964
      f+3     :     0.008856
      f-3     :     0.005811

  5 N s       :     2.976170  s :     2.976170
      pz      :     1.139378  p :     3.593654
      px      :     1.289550
      py      :     1.164726
      dz2     :     0.044515  d :     0.204676
      dxz     :     0.040729
      dyz     :     0.043166
      dx2y2   :     0.036917
      dxy     :     0.039348
      f0      :     0.002019  f :     0.018186
      f+1     :     0.002674
      f-1     :     0.002491
      f+2     :     0.003230
      f-2     :     0.002724
      f+3     :     0.002743
      f-3     :     0.002305

  6 C s       :     2.700192  s :     2.700192
      pz      :     0.903275  p :     2.733103
      px      :     0.941693
      py      :     0.888135
      dz2     :     0.130043  d :     0.619964
      dxz     :     0.112070
      dyz     :     0.104713
      dx2y2   :     0.135303
      dxy     :     0.137835
      f0      :     0.006995  f :     0.076237
      f+1     :     0.009393
      f-1     :     0.011140
      f+2     :     0.015918
      f-2     :     0.008816
      f+3     :     0.011421
      f-3     :     0.012554

  7 C s       :     2.713119  s :     2.713119
      pz      :     0.974341  p :     2.922552
      px      :     0.962832
      py      :     0.985379
      dz2     :     0.105718  d :     0.479076
      dxz     :     0.109123
      dyz     :     0.081830
      dx2y2   :     0.122564
      dxy     :     0.059841
      f0      :     0.009079  f :     0.053610
      f+1     :     0.009409
      f-1     :     0.005462
      f+2     :     0.006328
      f-2     :     0.009834
      f+3     :     0.005299
      f-3     :     0.008199

  8 C s       :     2.718971  s :     2.718971
      pz      :     0.981923  p :     2.936252
      px      :     0.978245
      py      :     0.976084
      dz2     :     0.125553  d :     0.482938
      dxz     :     0.068783
      dyz     :     0.111153
      dx2y2   :     0.065808
      dxy     :     0.111641
      f0      :     0.009601  f :     0.053725
      f+1     :     0.009359
      f-1     :     0.006770
      f+2     :     0.007217
      f-2     :     0.009139
      f+3     :     0.004275
      f-3     :     0.007364

  9 C s       :     2.710457  s :     2.710457
      pz      :     0.887394  p :     2.739053
      px      :     0.899934
      py      :     0.951725
      dz2     :     0.142083  d :     0.634447
      dxz     :     0.117292
      dyz     :     0.121121
      dx2y2   :     0.123119
      dxy     :     0.130833
      f0      :     0.009869  f :     0.077393
      f+1     :     0.009535
      f-1     :     0.012208
      f+2     :     0.012074
      f-2     :     0.013302
      f+3     :     0.012877
      f-3     :     0.007529

 10 C s       :     2.827019  s :     2.827019
      pz      :     1.027616  p :     3.160328
      px      :     1.074689
      py      :     1.058024
      dz2     :     0.075158  d :     0.257040
      dxz     :     0.028418
      dyz     :     0.067560
      dx2y2   :     0.015984
      dxy     :     0.069920
      f0      :     0.003791  f :     0.024418
      f+1     :     0.004962
      f-1     :     0.004405
      f+2     :     0.004466
      f-2     :     0.002608
      f+3     :     0.001029
      f-3     :     0.003158

 11 C s       :     2.766761  s :     2.766761
      pz      :     1.016395  p :     3.025957
      px      :     0.975805
      py      :     1.033757
      dz2     :     0.084098  d :     0.387277
      dxz     :     0.085848
      dyz     :     0.053201
      dx2y2   :     0.104548
      dxy     :     0.059582
      f0      :     0.003950  f :     0.038221
      f+1     :     0.007364
      f-1     :     0.004325
      f+2     :     0.004546
      f-2     :     0.006453
      f+3     :     0.005125
      f-3     :     0.006459

 12 C s       :     2.772235  s :     2.772235
      pz      :     1.018933  p :     3.052404
      px      :     0.997948
      py      :     1.035523
      dz2     :     0.066873  d :     0.356733
      dxz     :     0.103359
      dyz     :     0.039357
      dx2y2   :     0.093993
      dxy     :     0.053151
      f0      :     0.003894  f :     0.036740
      f+1     :     0.007707
      f-1     :     0.004020
      f+2     :     0.004839
      f-2     :     0.005523
      f+3     :     0.004866
      f-3     :     0.005891

 13 C s       :     2.754712  s :     2.754712
      pz      :     1.005048  p :     2.609746
      px      :     0.894945
      py      :     0.709752
      dz2     :     0.222632  d :     0.946455
      dxz     :     0.350116
      dyz     :     0.166426
      dx2y2   :     0.093663
      dxy     :     0.113620
      f0      :     0.027948  f :     0.153447
      f+1     :     0.052580
      f-1     :     0.020545
      f+2     :     0.015945
      f-2     :     0.013301
      f+3     :     0.010448
      f-3     :     0.012681

 14 O s       :     3.392437  s :     3.392437
      pz      :     1.503089  p :     4.464140
      px      :     1.620814
      py      :     1.340237
      dz2     :     0.030477  d :     0.066546
      dxz     :     0.019693
      dyz     :     0.014126
      dx2y2   :     0.001246
      dxy     :     0.001003
      f0      :     0.002410  f :     0.006176
      f+1     :     0.002009
      f-1     :     0.001216
      f+2     :     0.000256
      f-2     :     0.000259
      f+3     :     0.000014
      f-3     :     0.000012

 15 O s       :     3.259156  s :     3.259156
      pz      :     1.547756  p :     4.392036
      px      :     1.262870
      py      :     1.581410
      dz2     :     0.016398  d :     0.102945
      dxz     :     0.037745
      dyz     :     0.007524
      dx2y2   :     0.025298
      dxy     :     0.015980
      f0      :     0.000583  f :     0.006317
      f+1     :     0.001979
      f-1     :     0.000099
      f+2     :     0.001145
      f-2     :     0.000964
      f+3     :     0.000973
      f-3     :     0.000573

 16 N s       :     2.968794  s :     2.968794
      pz      :     1.258412  p :     3.641822
      px      :     1.139646
      py      :     1.243765
      dz2     :     0.027011  d :     0.199995
      dxz     :     0.043668
      dyz     :     0.030090
      dx2y2   :     0.050741
      dxy     :     0.048486
      f0      :     0.001711  f :     0.018262
      f+1     :     0.002934
      f-1     :     0.001222
      f+2     :     0.002765
      f-2     :     0.003569
      f+3     :     0.002462
      f-3     :     0.003600

 17 C s       :     2.694597  s :     2.694597
      pz      :     0.877828  p :     2.742685
      px      :     0.921550
      py      :     0.943308
      dz2     :     0.120699  d :     0.645478
      dxz     :     0.126744
      dyz     :     0.106029
      dx2y2   :     0.148933
      dxy     :     0.143073
      f0      :     0.008578  f :     0.079444
      f+1     :     0.012728
      f-1     :     0.007007
      f+2     :     0.008884
      f-2     :     0.015929
      f+3     :     0.012270
      f-3     :     0.014048

 18 C s       :     2.703431  s :     2.703431
      pz      :     0.917797  p :     2.834338
      px      :     0.976705
      py      :     0.939836
      dz2     :     0.086823  d :     0.505500
      dxz     :     0.103714
      dyz     :     0.089823
      dx2y2   :     0.123635
      dxy     :     0.101506
      f0      :     0.006843  f :     0.057770
      f+1     :     0.006353
      f-1     :     0.007870
      f+2     :     0.009742
      f-2     :     0.008737
      f+3     :     0.011893
      f-3     :     0.006332

 19 C s       :     2.693599  s :     2.693599
      pz      :     0.908162  p :     2.831297
      px      :     0.972626
      py      :     0.950509
      dz2     :     0.087867  d :     0.506946
      dxz     :     0.090058
      dyz     :     0.092038
      dx2y2   :     0.111986
      dxy     :     0.124996
      f0      :     0.006299  f :     0.057969
      f+1     :     0.006011
      f-1     :     0.009092
      f+2     :     0.009561
      f-2     :     0.006605
      f+3     :     0.011205
      f-3     :     0.009196

 20 C s       :     2.691293  s :     2.691293
      pz      :     0.911607  p :     2.766687
      px      :     0.957064
      py      :     0.898017
      dz2     :     0.104680  d :     0.630548
      dxz     :     0.118830
      dyz     :     0.107178
      dx2y2   :     0.155202
      dxy     :     0.144657
      f0      :     0.008906  f :     0.077683
      f+1     :     0.011762
      f-1     :     0.006320
      f+2     :     0.010456
      f-2     :     0.010945
      f+3     :     0.010250
      f-3     :     0.019043

 21 C s       :     2.811568  s :     2.811568
      pz      :     1.053201  p :     3.172866
      px      :     1.051192
      py      :     1.068474
      dz2     :     0.078783  d :     0.250552
      dxz     :     0.040756
      dyz     :     0.031490
      dx2y2   :     0.066902
      dxy     :     0.032622
      f0      :     0.002755  f :     0.025088
      f+1     :     0.004253
      f-1     :     0.004211
      f+2     :     0.003238
      f-2     :     0.004678
      f+3     :     0.001674
      f-3     :     0.004280

 22 C s       :     2.771843  s :     2.771843
      pz      :     1.062003  p :     2.961251
      px      :     0.926527
      py      :     0.972721
      dz2     :     0.082030  d :     0.392733
      dxz     :     0.088084
      dyz     :     0.117525
      dx2y2   :     0.052747
      dxy     :     0.052346
      f0      :     0.007675  f :     0.041256
      f+1     :     0.006482
      f-1     :     0.008798
      f+2     :     0.005634
      f-2     :     0.004851
      f+3     :     0.003462
      f-3     :     0.004353

 23 C s       :     2.854731  s :     2.854731
      pz      :     1.082081  p :     3.068896
      px      :     0.971902
      py      :     1.014913
      dz2     :     0.060056  d :     0.236317
      dxz     :     0.064392
      dyz     :     0.073083
      dx2y2   :     0.021627
      dxy     :     0.017159
      f0      :     0.006268  f :     0.027034
      f+1     :     0.005697
      f-1     :     0.005686
      f+2     :     0.003191
      f-2     :     0.003433
      f+3     :     0.002130
      f-3     :     0.000629

 24 N s       :     2.975828  s :     2.975828
      pz      :     1.154002  p :     3.622677
      px      :     1.289536
      py      :     1.179139
      dz2     :     0.043937  d :     0.203318
      dxz     :     0.035626
      dyz     :     0.039920
      dx2y2   :     0.039797
      dxy     :     0.044038
      f0      :     0.001973  f :     0.018389
      f+1     :     0.002708
      f-1     :     0.002038
      f+2     :     0.003071
      f-2     :     0.002564
      f+3     :     0.003195
      f-3     :     0.002841

 25 C s       :     2.691937  s :     2.691937
      pz      :     0.915359  p :     2.772967
      px      :     0.948715
      py      :     0.908893
      dz2     :     0.112037  d :     0.633594
      dxz     :     0.112118
      dyz     :     0.121027
      dx2y2   :     0.146261
      dxy     :     0.142151
      f0      :     0.006330  f :     0.079230
      f+1     :     0.010502
      f-1     :     0.011972
      f+2     :     0.016390
      f-2     :     0.008083
      f+3     :     0.011089
      f-3     :     0.014864

 26 C s       :     2.702502  s :     2.702502
      pz      :     0.934389  p :     2.853064
      px      :     0.951151
      py      :     0.967524
      dz2     :     0.089516  d :     0.512223
      dxz     :     0.089030
      dyz     :     0.090470
      dx2y2   :     0.127113
      dxy     :     0.116094
      f0      :     0.005798  f :     0.058475
      f+1     :     0.007237
      f-1     :     0.007043
      f+2     :     0.008684
      f-2     :     0.009122
      f+3     :     0.007546
      f-3     :     0.013045

 27 C s       :     2.701895  s :     2.701895
      pz      :     0.926057  p :     2.827496
      px      :     0.946249
      py      :     0.955190
      dz2     :     0.099925  d :     0.512085
      dxz     :     0.102357
      dyz     :     0.080420
      dx2y2   :     0.109349
      dxy     :     0.120034
      f0      :     0.007211  f :     0.058610
      f+1     :     0.007999
      f-1     :     0.006179
      f+2     :     0.005999
      f-2     :     0.012112
      f+3     :     0.009147
      f-3     :     0.009963

 28 C s       :     2.690704  s :     2.690704
      pz      :     0.905483  p :     2.790474
      px      :     0.925548
      py      :     0.959444
      dz2     :     0.117733  d :     0.620336
      dxz     :     0.118870
      dyz     :     0.112483
      dx2y2   :     0.137716
      dxy     :     0.133534
      f0      :     0.010001  f :     0.077349
      f+1     :     0.009224
      f-1     :     0.009381
      f+2     :     0.010804
      f-2     :     0.014393
      f+3     :     0.014249
      f-3     :     0.009296

 29 C s       :     2.811434  s :     2.811434
      pz      :     1.069998  p :     3.174834
      px      :     1.060018
      py      :     1.044819
      dz2     :     0.058324  d :     0.251381
      dxz     :     0.035545
      dyz     :     0.034355
      dx2y2   :     0.072364
      dxy     :     0.050793
      f0      :     0.004082  f :     0.025008
      f+1     :     0.001149
      f-1     :     0.002466
      f+2     :     0.004471
      f-2     :     0.004099
      f+3     :     0.004863
      f-3     :     0.003878

 30 C s       :     2.763387  s :     2.763387
      pz      :     1.017187  p :     3.061269
      px      :     1.012553
      py      :     1.031529
      dz2     :     0.095737  d :     0.386629
      dxz     :     0.102875
      dyz     :     0.060962
      dx2y2   :     0.071066
      dxy     :     0.055988
      f0      :     0.007525  f :     0.038651
      f+1     :     0.007041
      f-1     :     0.004977
      f+2     :     0.004843
      f-2     :     0.007079
      f+3     :     0.002819
      f-3     :     0.004367

 31 C s       :     2.833250  s :     2.833250
      pz      :     1.037364  p :     3.186668
      px      :     1.077541
      py      :     1.071763
      dz2     :     0.054765  d :     0.258463
      dxz     :     0.088368
      dyz     :     0.041816
      dx2y2   :     0.052067
      dxy     :     0.021447
      f0      :     0.005988  f :     0.024483
      f+1     :     0.002893
      f-1     :     0.004424
      f+2     :     0.003385
      f-2     :     0.003861
      f+3     :     0.001555
      f-3     :     0.002378

 32 N s       :     2.965803  s :     2.965803
      pz      :     1.237888  p :     3.626626
      px      :     1.124597
      py      :     1.264141
      dz2     :     0.026746  d :     0.202345
      dxz     :     0.044766
      dyz     :     0.029401
      dx2y2   :     0.052045
      dxy     :     0.049388
      f0      :     0.001716  f :     0.019047
      f+1     :     0.003075
      f-1     :     0.001261
      f+2     :     0.002455
      f-2     :     0.003757
      f+3     :     0.002792
      f-3     :     0.003990

 33 C s       :     2.693412  s :     2.693412
      pz      :     0.901500  p :     2.793857
      px      :     0.931291
      py      :     0.961065
      dz2     :     0.109226  d :     0.607044
      dxz     :     0.120410
      dyz     :     0.094013
      dx2y2   :     0.138486
      dxy     :     0.144909
      f0      :     0.007508  f :     0.075674
      f+1     :     0.011953
      f-1     :     0.006341
      f+2     :     0.008694
      f-2     :     0.014929
      f+3     :     0.013637
      f-3     :     0.012613

 34 C s       :     2.710473  s :     2.710473
      pz      :     0.895941  p :     2.793808
      px      :     0.966641
      py      :     0.931226
      dz2     :     0.083181  d :     0.515733
      dxz     :     0.108871
      dyz     :     0.092405
      dx2y2   :     0.129429
      dxy     :     0.101847
      f0      :     0.005798  f :     0.058183
      f+1     :     0.007179
      f-1     :     0.008085
      f+2     :     0.011548
      f-2     :     0.006929
      f+3     :     0.011103
      f-3     :     0.007541

 35 C s       :     2.681640  s :     2.681640
      pz      :     0.939121  p :     2.863079
      px      :     0.974589
      py      :     0.949369
      dz2     :     0.084023  d :     0.479977
      dxz     :     0.086026
      dyz     :     0.070851
      dx2y2   :     0.097665
      dxy     :     0.141412
      f0      :     0.006339  f :     0.062082
      f+1     :     0.007312
      f-1     :     0.007382
      f+2     :     0.008689
      f-2     :     0.008093
      f+3     :     0.010800
      f-3     :     0.013467

 36 C s       :     2.663526  s :     2.663526
      pz      :     0.881792  p :     2.713957
      px      :     0.932770
      py      :     0.899395
      dz2     :     0.111394  d :     0.682230
      dxz     :     0.120998
      dyz     :     0.116124
      dx2y2   :     0.176021
      dxy     :     0.157693
      f0      :     0.009760  f :     0.087455
      f+1     :     0.011900
      f-1     :     0.007609
      f+2     :     0.010649
      f-2     :     0.012449
      f+3     :     0.013156
      f-3     :     0.021933

 37 C s       :     2.812771  s :     2.812771
      pz      :     1.051749  p :     3.170994
      px      :     1.052191
      py      :     1.067054
      dz2     :     0.038756  d :     0.243872
      dxz     :     0.052546
      dyz     :     0.066134
      dx2y2   :     0.048086
      dxy     :     0.038350
      f0      :     0.004606  f :     0.024810
      f+1     :     0.003598
      f-1     :     0.002602
      f+2     :     0.004142
      f-2     :     0.003449
      f+3     :     0.003975
      f-3     :     0.002438

 38 C s       :     2.745863  s :     2.745863
      pz      :     0.809722  p :     2.621603
      px      :     0.904502
      py      :     0.907379
      dz2     :     0.124727  d :     0.768933
      dxz     :     0.143173
      dyz     :     0.148416
      dx2y2   :     0.165155
      dxy     :     0.187462
      f0      :     0.010629  f :     0.104530
      f+1     :     0.006417
      f-1     :     0.018675
      f+2     :     0.013230
      f-2     :     0.023236
      f+3     :     0.018856
      f-3     :     0.013487

 39 O s       :     3.395389  s :     3.395389
      pz      :     1.401294  p :     4.440927
      px      :     1.576773
      py      :     1.462860
      dz2     :     0.010621  d :     0.068175
      dxz     :     0.007943
      dyz     :     0.022504
      dx2y2   :     0.013532
      dxy     :     0.013576
      f0      :     0.000518  f :     0.006008
      f+1     :     0.000101
      f-1     :     0.001340
      f+2     :     0.001497
      f-2     :     0.001114
      f+3     :     0.000742
      f-3     :     0.000696

 40 C s       :     2.724071  s :     2.724071
      pz      :     0.976240  p :     2.917701
      px      :     0.980778
      py      :     0.960683
      dz2     :     0.055384  d :     0.423007
      dxz     :     0.101462
      dyz     :     0.099784
      dx2y2   :     0.099808
      dxy     :     0.066570
      f0      :     0.005942  f :     0.045845
      f+1     :     0.004157
      f-1     :     0.008764
      f+2     :     0.007019
      f-2     :     0.006143
      f+3     :     0.007192
      f-3     :     0.006627

 41 C s       :     2.748614  s :     2.748614
      pz      :     0.945417  p :     2.608280
      px      :     0.785240
      py      :     0.877623
      dz2     :     0.209984  d :     0.947301
      dxz     :     0.203684
      dyz     :     0.263636
      dx2y2   :     0.145211
      dxy     :     0.124787
      f0      :     0.023459  f :     0.153584
      f+1     :     0.024659
      f-1     :     0.034981
      f+2     :     0.019731
      f-2     :     0.021533
      f+3     :     0.015655
      f-3     :     0.013567

 42 O s       :     3.390317  s :     3.390317
      pz      :     1.465801  p :     4.449926
      px      :     1.433019
      py      :     1.551106
      dz2     :     0.022901  d :     0.066851
      dxz     :     0.020369
      dyz     :     0.015753
      dx2y2   :     0.003880
      dxy     :     0.003948
      f0      :     0.001425  f :     0.006196
      f+1     :     0.001888
      f-1     :     0.001168
      f+2     :     0.000802
      f-2     :     0.000712
      f+3     :     0.000107
      f-3     :     0.000093

 43 O s       :     3.254376  s :     3.254376
      pz      :     1.563867  p :     4.392382
      px      :     1.501278
      py      :     1.327237
      dz2     :     0.015738  d :     0.107888
      dxz     :     0.014196
      dyz     :     0.027718
      dx2y2   :     0.021911
      dxy     :     0.028325
      f0      :     0.000467  f :     0.006671
      f+1     :     0.000571
      f-1     :     0.001301
      f+2     :     0.001096
      f-2     :     0.001292
      f+3     :     0.001190
      f-3     :     0.000755

 44 C s       :     2.863570  s :     2.863570
      pz      :     1.054627  p :     3.025258
      px      :     1.108206
      py      :     0.862425
      dz2     :     0.069604  d :     0.355979
      dxz     :     0.049156
      dyz     :     0.088396
      dx2y2   :     0.056625
      dxy     :     0.092197
      f0      :     0.004409  f :     0.052515
      f+1     :     0.002398
      f-1     :     0.011668
      f+2     :     0.010472
      f-2     :     0.007446
      f+3     :     0.006434
      f-3     :     0.009688

 45 C s       :     2.795299  s :     2.795299
      pz      :     0.961655  p :     2.907590
      px      :     0.881312
      py      :     1.064623
      dz2     :     0.063031  d :     0.489249
      dxz     :     0.136399
      dyz     :     0.120616
      dx2y2   :     0.100631
      dxy     :     0.068572
      f0      :     0.007989  f :     0.065498
      f+1     :     0.019298
      f-1     :     0.001789
      f+2     :     0.009973
      f-2     :     0.010618
      f+3     :     0.005800
      f-3     :     0.010031

 46 C s       :     2.775950  s :     2.775950
      pz      :     0.959062  p :     2.983074
      px      :     1.004618
      py      :     1.019395
      dz2     :     0.031794  d :     0.377332
      dxz     :     0.071932
      dyz     :     0.076110
      dx2y2   :     0.115095
      dxy     :     0.082401
      f0      :     0.004274  f :     0.039870
      f+1     :     0.005102
      f-1     :     0.002293
      f+2     :     0.004222
      f-2     :     0.007614
      f+3     :     0.006868
      f-3     :     0.009496

 47 C s       :     2.735332  s :     2.735332
      pz      :     0.877275  p :     2.869203
      px      :     0.977160
      py      :     1.014767
      dz2     :     0.066210  d :     0.531864
      dxz     :     0.090287
      dyz     :     0.104474
      dx2y2   :     0.153713
      dxy     :     0.117180
      f0      :     0.005247  f :     0.055726
      f+1     :     0.005487
      f-1     :     0.006997
      f+2     :     0.004923
      f-2     :     0.010706
      f+3     :     0.010854
      f-3     :     0.011511

 48 C s       :     2.815059  s :     2.815059
      pz      :     1.066006  p :     3.172933
      px      :     1.069935
      py      :     1.036992
      dz2     :     0.026275  d :     0.249023
      dxz     :     0.054198
      dyz     :     0.067353
      dx2y2   :     0.062071
      dxy     :     0.039126
      f0      :     0.002817  f :     0.024636
      f+1     :     0.002226
      f-1     :     0.004840
      f+2     :     0.003614
      f-2     :     0.003167
      f+3     :     0.005128
      f-3     :     0.002844

 49 C s       :     2.767361  s :     2.767361
      pz      :     1.014331  p :     3.034081
      px      :     0.991793
      py      :     1.027957
      dz2     :     0.045794  d :     0.386480
      dxz     :     0.087963
      dyz     :     0.104510
      dx2y2   :     0.095103
      dxy     :     0.053109
      f0      :     0.004455  f :     0.037964
      f+1     :     0.009462
      f-1     :     0.001498
      f+2     :     0.005363
      f-2     :     0.005563
      f+3     :     0.004017
      f-3     :     0.007606

 50 C s       :     2.775083  s :     2.775083
      pz      :     1.029457  p :     3.053763
      px      :     0.992924
      py      :     1.031382
      dz2     :     0.049266  d :     0.393507
      dxz     :     0.089853
      dyz     :     0.109453
      dx2y2   :     0.091454
      dxy     :     0.053482
      f0      :     0.004690  f :     0.038422
      f+1     :     0.010132
      f-1     :     0.001563
      f+2     :     0.005201
      f-2     :     0.006048
      f+3     :     0.003805
      f-3     :     0.006983

 51 C s       :     2.773918  s :     2.773918
      pz      :     1.019630  p :     3.042252
      px      :     0.994511
      py      :     1.028111
      dz2     :     0.050294  d :     0.396572
      dxz     :     0.089004
      dyz     :     0.106757
      dx2y2   :     0.097401
      dxy     :     0.053116
      f0      :     0.004385  f :     0.038044
      f+1     :     0.009524
      f-1     :     0.001753
      f+2     :     0.005272
      f-2     :     0.005816
      f+3     :     0.003890
      f-3     :     0.007403

 52 C s       :     2.733901  s :     2.733901
      pz      :     1.001376  p :     2.985790
      px      :     0.984896
      py      :     0.999518
      dz2     :     0.075525  d :     0.519166
      dxz     :     0.121268
      dyz     :     0.129869
      dx2y2   :     0.120395
      dxy     :     0.072109
      f0      :     0.006882  f :     0.052533
      f+1     :     0.010259
      f-1     :     0.005542
      f+2     :     0.006599
      f-2     :     0.009311
      f+3     :     0.005890
      f-3     :     0.008049

 53 C s       :     2.825667  s :     2.825667
      pz      :     1.057959  p :     3.180637
      px      :     1.068296
      py      :     1.054382
      dz2     :     0.030789  d :     0.262202
      dxz     :     0.078478
      dyz     :     0.059449
      dx2y2   :     0.070430
      dxy     :     0.023056
      f0      :     0.004270  f :     0.024705
      f+1     :     0.001654
      f-1     :     0.004886
      f+2     :     0.004165
      f-2     :     0.002898
      f+3     :     0.003953
      f-3     :     0.002879

 54 C s       :     2.774019  s :     2.774019
      pz      :     1.016389  p :     3.042550
      px      :     0.999267
      py      :     1.026894
      dz2     :     0.049111  d :     0.397631
      dxz     :     0.090974
      dyz     :     0.107165
      dx2y2   :     0.093236
      dxy     :     0.057145
      f0      :     0.005007  f :     0.038003
      f+1     :     0.008797
      f-1     :     0.001793
      f+2     :     0.005441
      f-2     :     0.005727
      f+3     :     0.004400
      f-3     :     0.006837

 55 C s       :     2.773334  s :     2.773334
      pz      :     1.029380  p :     3.062255
      px      :     1.004165
      py      :     1.028710
      dz2     :     0.049877  d :     0.396483
      dxz     :     0.091716
      dyz     :     0.110476
      dx2y2   :     0.084977
      dxy     :     0.059436
      f0      :     0.005615  f :     0.038846
      f+1     :     0.008921
      f-1     :     0.001964
      f+2     :     0.005727
      f-2     :     0.005859
      f+3     :     0.004543
      f-3     :     0.006216

 56 C s       :     2.774032  s :     2.774032
      pz      :     1.020613  p :     3.042698
      px      :     0.995172
      py      :     1.026913
      dz2     :     0.049900  d :     0.397656
      dxz     :     0.092472
      dyz     :     0.107679
      dx2y2   :     0.086374
      dxy     :     0.061230
      f0      :     0.005507  f :     0.038017
      f+1     :     0.008059
      f-1     :     0.002082
      f+2     :     0.005431
      f-2     :     0.005923
      f+3     :     0.005135
      f-3     :     0.005880

 57 C s       :     2.733943  s :     2.733943
      pz      :     0.999855  p :     2.986235
      px      :     0.988238
      py      :     0.998143
      dz2     :     0.077086  d :     0.519328
      dxz     :     0.113637
      dyz     :     0.131428
      dx2y2   :     0.112119
      dxy     :     0.085059
      f0      :     0.007136  f :     0.052536
      f+1     :     0.008870
      f-1     :     0.006294
      f+2     :     0.008810
      f-2     :     0.006857
      f+3     :     0.006576
      f-3     :     0.007993

 58 C s       :     2.825647  s :     2.825647
      pz      :     1.060946  p :     3.180955
      px      :     1.064275
      py      :     1.055733
      dz2     :     0.035511  d :     0.262569
      dxz     :     0.060700
      dyz     :     0.065259
      dx2y2   :     0.067748
      dxy     :     0.033351
      f0      :     0.003128  f :     0.024720
      f+1     :     0.003109
      f-1     :     0.004324
      f+2     :     0.003950
      f-2     :     0.002767
      f+3     :     0.003024
      f-3     :     0.004418

 59 C s       :     2.774025  s :     2.774025
      pz      :     1.014255  p :     3.042970
      px      :     1.007260
      py      :     1.021456
      dz2     :     0.050908  d :     0.397581
      dxz     :     0.093489
      dyz     :     0.104585
      dx2y2   :     0.073741
      dxy     :     0.074857
      f0      :     0.006352  f :     0.038014
      f+1     :     0.006594
      f-1     :     0.002678
      f+2     :     0.005721
      f-2     :     0.005723
      f+3     :     0.006666
      f-3     :     0.004281

 60 C s       :     2.773706  s :     2.773706
      pz      :     1.027856  p :     3.062662
      px      :     1.011177
      py      :     1.023629
      dz2     :     0.055206  d :     0.396415
      dxz     :     0.092284
      dyz     :     0.104661
      dx2y2   :     0.067837
      dxy     :     0.076426
      f0      :     0.006841  f :     0.038839
      f+1     :     0.006475
      f-1     :     0.003253
      f+2     :     0.006411
      f-2     :     0.005286
      f+3     :     0.006746
      f-3     :     0.003829

 61 C s       :     2.774870  s :     2.774870
      pz      :     1.020059  p :     3.044531
      px      :     1.003061
      py      :     1.021411
      dz2     :     0.056529  d :     0.397918
      dxz     :     0.090267
      dyz     :     0.104347
      dx2y2   :     0.069547
      dxy     :     0.077228
      f0      :     0.006549  f :     0.038014
      f+1     :     0.005921
      f-1     :     0.003285
      f+2     :     0.006802
      f-2     :     0.004801
      f+3     :     0.006283
      f-3     :     0.004372

 62 C s       :     2.737080  s :     2.737080
      pz      :     1.006296  p :     3.003136
      px      :     0.995433
      py      :     1.001407
      dz2     :     0.094564  d :     0.526239
      dxz     :     0.113314
      dyz     :     0.120190
      dx2y2   :     0.093175
      dxy     :     0.104996
      f0      :     0.009315  f :     0.053277
      f+1     :     0.006573
      f-1     :     0.007371
      f+2     :     0.006995
      f-2     :     0.009294
      f+3     :     0.008218
      f-3     :     0.005511

 63 C s       :     2.828618  s :     2.828618
      pz      :     1.057047  p :     3.181236
      px      :     1.071541
      py      :     1.052647
      dz2     :     0.064281  d :     0.262995
      dxz     :     0.043431
      dyz     :     0.049966
      dx2y2   :     0.046134
      dxy     :     0.059184
      f0      :     0.002958  f :     0.024718
      f+1     :     0.002972
      f-1     :     0.004787
      f+2     :     0.002697
      f-2     :     0.004704
      f+3     :     0.003759
      f-3     :     0.002840

 64 C s       :     2.830337  s :     2.830337
      pz      :     1.047901  p :     3.179039
      px      :     1.058918
      py      :     1.072221
      dz2     :     0.051804  d :     0.264293
      dxz     :     0.042806
      dyz     :     0.090120
      dx2y2   :     0.050378
      dxy     :     0.029184
      f0      :     0.006137  f :     0.024763
      f+1     :     0.003873
      f-1     :     0.002624
      f+2     :     0.003848
      f-2     :     0.003903
      f+3     :     0.002373
      f-3     :     0.002003

 65 H s       :     0.772459  s :     0.772459
      pz      :     0.024156  p :     0.060764
      px      :     0.024235
      py      :     0.012372

 66 H s       :     0.772427  s :     0.772427
      pz      :     0.015156  p :     0.060624
      px      :     0.017014
      py      :     0.028453

 67 H s       :     0.770175  s :     0.770175
      pz      :     0.021781  p :     0.059834
      px      :     0.025862
      py      :     0.012191

 68 H s       :     0.768620  s :     0.768620
      pz      :     0.013238  p :     0.058007
      px      :     0.012210
      py      :     0.032559

 69 H s       :     0.773580  s :     0.773580
      pz      :     0.012057  p :     0.057612
      px      :     0.028188
      py      :     0.017366

 70 H s       :     0.810737  s :     0.810737
      pz      :     0.012538  p :     0.060714
      px      :     0.025494
      py      :     0.022682

 71 H s       :     0.811817  s :     0.811817
      pz      :     0.026770  p :     0.061101
      px      :     0.013171
      py      :     0.021160

 72 H s       :     0.807458  s :     0.807458
      pz      :     0.012442  p :     0.060859
      px      :     0.029956
      py      :     0.018461

 73 H s       :     0.790759  s :     0.790759
      pz      :     0.029698  p :     0.060249
      px      :     0.012949
      py      :     0.017602

 74 H s       :     0.787408  s :     0.787408
      pz      :     0.013265  p :     0.058703
      px      :     0.011920
      py      :     0.033518

 75 H s       :     0.782696  s :     0.782696
      pz      :     0.028880  p :     0.060197
      px      :     0.013674
      py      :     0.017643

 76 H s       :     0.773361  s :     0.773361
      pz      :     0.013520  p :     0.059625
      px      :     0.012107
      py      :     0.033998

 77 H s       :     0.804782  s :     0.804782
      pz      :     0.014464  p :     0.061104
      px      :     0.030652
      py      :     0.015988

 78 H s       :     0.800347  s :     0.800347
      pz      :     0.012716  p :     0.061204
      px      :     0.012482
      py      :     0.036006

 79 H s       :     0.799498  s :     0.799498
      pz      :     0.030847  p :     0.060562
      px      :     0.013577
      py      :     0.016138

 80 H s       :     0.783928  s :     0.783928
      pz      :     0.019696  p :     0.058434
      px      :     0.021273
      py      :     0.017465

 81 H s       :     0.808958  s :     0.808958
      pz      :     0.012668  p :     0.062041
      px      :     0.018195
      py      :     0.031178

 82 H s       :     0.808248  s :     0.808248
      pz      :     0.022604  p :     0.062709
      px      :     0.021729
      py      :     0.018376

 83 H s       :     0.802363  s :     0.802363
      pz      :     0.014996  p :     0.060437
      px      :     0.017672
      py      :     0.027769

 84 H s       :     0.805172  s :     0.805172
      pz      :     0.017971  p :     0.061112
      px      :     0.030518
      py      :     0.012623

 85 H s       :     0.803737  s :     0.803737
      pz      :     0.034734  p :     0.060548
      px      :     0.013368
      py      :     0.012447

 86 H s       :     0.794669  s :     0.794669
      pz      :     0.012849  p :     0.058431
      px      :     0.013584
      py      :     0.031999

 87 H s       :     0.794377  s :     0.794377
      pz      :     0.016457  p :     0.058473
      px      :     0.024655
      py      :     0.017361

 88 H s       :     0.817076  s :     0.817076
      pz      :     0.019968  p :     0.060604
      px      :     0.027481
      py      :     0.013155

 89 H s       :     0.816354  s :     0.816354
      pz      :     0.012781  p :     0.060692
      px      :     0.014182
      py      :     0.033730

 90 H s       :     0.816944  s :     0.816944
      pz      :     0.017059  p :     0.060867
      px      :     0.026596
      py      :     0.017212

 91 H s       :     0.797907  s :     0.797907
      pz      :     0.023479  p :     0.060720
      px      :     0.013524
      py      :     0.023717

 92 H s       :     0.801035  s :     0.801035
      pz      :     0.016814  p :     0.061178
      px      :     0.016162
      py      :     0.028202

 93 H s       :     0.796723  s :     0.796723
      pz      :     0.017154  p :     0.060713
      px      :     0.029112
      py      :     0.014447

 94 H s       :     0.755817  s :     0.755817
      pz      :     0.021112  p :     0.060085
      px      :     0.027327
      py      :     0.011646

 95 H s       :     0.821545  s :     0.821545
      pz      :     0.035368  p :     0.061851
      px      :     0.016899
      py      :     0.009584

 96 H s       :     0.819925  s :     0.819925
      pz      :     0.012374  p :     0.061905
      px      :     0.032674
      py      :     0.016857

 97 H s       :     0.818225  s :     0.818225
      pz      :     0.020548  p :     0.061287
      px      :     0.024599
      py      :     0.016139

 98 H s       :     0.801535  s :     0.801535
      pz      :     0.021345  p :     0.058830
      px      :     0.009607
      py      :     0.027878

 99 H s       :     0.803984  s :     0.803984
      pz      :     0.018613  p :     0.060786
      px      :     0.010055
      py      :     0.032118

100 H s       :     0.789250  s :     0.789250
      pz      :     0.019660  p :     0.059398
      px      :     0.012691
      py      :     0.027047

101 H s       :     0.803446  s :     0.803446
      pz      :     0.021806  p :     0.060358
      px      :     0.014355
      py      :     0.024197

102 H s       :     0.802648  s :     0.802648
      pz      :     0.025710  p :     0.061143
      px      :     0.022770
      py      :     0.012663

103 H s       :     0.809685  s :     0.809685
      pz      :     0.016050  p :     0.061994
      px      :     0.032885
      py      :     0.013058

104 H s       :     0.793670  s :     0.793670
      pz      :     0.020970  p :     0.057701
      px      :     0.012107
      py      :     0.024624

105 H s       :     0.795065  s :     0.795065
      pz      :     0.018095  p :     0.057653
      px      :     0.011655
      py      :     0.027903

106 H s       :     0.801554  s :     0.801554
      pz      :     0.021604  p :     0.059012
      px      :     0.012514
      py      :     0.024895

107 H s       :     0.800276  s :     0.800276
      pz      :     0.018427  p :     0.058642
      px      :     0.012541
      py      :     0.027675

108 H s       :     0.799656  s :     0.799656
      pz      :     0.022060  p :     0.057885
      px      :     0.011998
      py      :     0.023827

109 H s       :     0.800144  s :     0.800144
      pz      :     0.017799  p :     0.057852
      px      :     0.012347
      py      :     0.027706

110 H s       :     0.790479  s :     0.790479
      pz      :     0.018339  p :     0.055682
      px      :     0.012120
      py      :     0.025223

111 H s       :     0.816873  s :     0.816873
      pz      :     0.022241  p :     0.061439
      px      :     0.026147
      py      :     0.013050

112 H s       :     0.816719  s :     0.816719
      pz      :     0.018657  p :     0.061463
      px      :     0.029681
      py      :     0.013125

113 H s       :     0.814377  s :     0.814377
      pz      :     0.018813  p :     0.060155
      px      :     0.013210
      py      :     0.028132

114 H s       :     0.800929  s :     0.800929
      pz      :     0.020883  p :     0.057814
      px      :     0.012837
      py      :     0.024094

115 H s       :     0.800858  s :     0.800858
      pz      :     0.018572  p :     0.057797
      px      :     0.012406
      py      :     0.026819

116 H s       :     0.804180  s :     0.804180
      pz      :     0.019878  p :     0.059537
      px      :     0.014316
      py      :     0.025343

117 H s       :     0.802193  s :     0.802193
      pz      :     0.019433  p :     0.057704
      px      :     0.012277
      py      :     0.025994

118 H s       :     0.801081  s :     0.801081
      pz      :     0.020219  p :     0.057795
      px      :     0.013760
      py      :     0.023817

119 H s       :     0.801033  s :     0.801033
      pz      :     0.018952  p :     0.057796
      px      :     0.012421
      py      :     0.026424

120 H s       :     0.791032  s :     0.791032
      pz      :     0.019238  p :     0.055686
      px      :     0.012362
      py      :     0.024087

121 H s       :     0.814483  s :     0.814483
      pz      :     0.019906  p :     0.060122
      px      :     0.013348
      py      :     0.026867

122 H s       :     0.817174  s :     0.817174
      pz      :     0.025624  p :     0.061441
      px      :     0.021669
      py      :     0.014148

123 H s       :     0.816914  s :     0.816914
      pz      :     0.016056  p :     0.061450
      px      :     0.030905
      py      :     0.014490

124 H s       :     0.800553  s :     0.800553
      pz      :     0.018919  p :     0.057818
      px      :     0.016560
      py      :     0.022339

125 H s       :     0.801373  s :     0.801373
      pz      :     0.019609  p :     0.057763
      px      :     0.012879
      py      :     0.025274

126 H s       :     0.802971  s :     0.802971
      pz      :     0.017585  p :     0.058576
      px      :     0.017961
      py      :     0.023030

127 H s       :     0.802781  s :     0.802781
      pz      :     0.020901  p :     0.058475
      px      :     0.013072
      py      :     0.024501

128 H s       :     0.801830  s :     0.801830
      pz      :     0.016687  p :     0.057683
      px      :     0.017188
      py      :     0.023807

129 H s       :     0.800465  s :     0.800465
      pz      :     0.021492  p :     0.057811
      px      :     0.012432
      py      :     0.023887

130 H s       :     0.793227  s :     0.793227
      pz      :     0.016503  p :     0.055735
      px      :     0.016378
      py      :     0.022854

131 H s       :     0.815821  s :     0.815821
      pz      :     0.016692  p :     0.060139
      px      :     0.018247
      py      :     0.025200

132 H s       :     0.816591  s :     0.816591
      pz      :     0.013632  p :     0.060415
      px      :     0.032060
      py      :     0.014723

133 H s       :     0.817965  s :     0.817965
      pz      :     0.029417  p :     0.061237
      px      :     0.017769
      py      :     0.014050

134 H s       :     0.817838  s :     0.817838
      pz      :     0.020616  p :     0.060317
      px      :     0.012894
      py      :     0.026807

135 H s       :     0.817618  s :     0.817618
      pz      :     0.013678  p :     0.060375
      px      :     0.031912
      py      :     0.014785

136 H s       :     0.816750  s :     0.816750
      pz      :     0.017929  p :     0.060217
      px      :     0.017069
      py      :     0.025219



                      *****************************
                      * MAYER POPULATION ANALYSIS *
                      *****************************

  NA   - Mulliken gross atomic population
  ZA   - Total nuclear charge
  QA   - Mulliken gross atomic charge
  VA   - Mayer's total valence
  BVA  - Mayer's bonded valence
  FA   - Mayer's free valence

  ATOM       NA         ZA         QA         VA         BVA        FA
  0 Mg    11.2307    12.0000     0.7693     1.9443     1.9443    -0.0000
  1 C      6.1346     6.0000    -0.1346     3.9009     3.9009     0.0000
  2 C      6.3612     6.0000    -0.3612     3.9958     3.9958    -0.0000
  3 C      6.2825     6.0000    -0.2825     4.0086     4.0086     0.0000
  4 C      6.2484     6.0000    -0.2484     3.9101     3.9101    -0.0000
  5 N      7.4380     7.0000    -0.4380     2.8132     2.8132     0.0000
  6 C      5.6308     6.0000     0.3692     3.3346     3.3346     0.0000
  7 C      6.2787     6.0000    -0.2787     3.8101     3.8101     0.0000
  8 C      6.1120     6.0000    -0.1120     3.7811     3.7811     0.0000
  9 C      5.8385     6.0000     0.1615     3.9823     3.9823     0.0000
 10 C      6.4738     6.0000    -0.4738     3.8203     3.8203    -0.0000
 11 C      6.3710     6.0000    -0.3710     3.7100     3.7100    -0.0000
 12 C      6.3255     6.0000    -0.3255     3.7069     3.7069    -0.0000
 13 C      5.5866     6.0000     0.4134     4.1495     4.1495    -0.0000
 14 O      8.4070     8.0000    -0.4070     2.0641     2.0641    -0.0000
 15 O      8.2775     8.0000    -0.2775     2.0534     2.0534    -0.0000
 16 N      7.4335     7.0000    -0.4335     2.9211     2.9211     0.0000
 17 C      5.7360     6.0000     0.2640     3.8267     3.8267    -0.0000
 18 C      5.9506     6.0000     0.0494     3.6264     3.6264    -0.0000
 19 C      5.9477     6.0000     0.0523     3.7873     3.7873    -0.0000
 20 C      5.7992     6.0000     0.2008     3.9125     3.9125     0.0000
 21 C      6.5886     6.0000    -0.5886     3.8141     3.8141    -0.0000
 22 C      6.1995     6.0000    -0.1995     3.7230     3.7230    -0.0000
 23 C      6.3795     6.0000    -0.3795     3.8534     3.8534    -0.0000
 24 N      7.4223     7.0000    -0.4223     2.9097     2.9097    -0.0000
 25 C      5.8278     6.0000     0.1722     3.9782     3.9782     0.0000
 26 C      5.9638     6.0000     0.0362     3.6694     3.6694     0.0000
 27 C      6.0177     6.0000    -0.0177     3.6981     3.6981    -0.0000
 28 C      5.7564     6.0000     0.2436     3.7507     3.7507    -0.0000
 29 C      6.5506     6.0000    -0.5506     3.8178     3.8178     0.0000
 30 C      6.4449     6.0000    -0.4449     3.8171     3.8171    -0.0000
 31 C      6.4114     6.0000    -0.4114     3.7782     3.7782    -0.0000
 32 N      7.4688     7.0000    -0.4688     2.8646     2.8646     0.0000
 33 C      5.8275     6.0000     0.1725     3.9279     3.9279    -0.0000
 34 C      6.0180     6.0000    -0.0180     3.7445     3.7445     0.0000
 35 C      6.0068     6.0000    -0.0068     3.4827     3.4827    -0.0000
 36 C      5.7873     6.0000     0.2127     3.8624     3.8624     0.0000
 37 C      6.5535     6.0000    -0.5535     3.8094     3.8094    -0.0000
 38 C      5.8507     6.0000     0.1493     4.3079     4.3079    -0.0000
 39 O      8.3495     8.0000    -0.3495     2.1362     2.1362    -0.0000
 40 C      6.2073     6.0000    -0.2073     3.5590     3.5590     0.0000
 41 C      5.6276     6.0000     0.3724     4.1795     4.1795     0.0000
 42 O      8.3853     8.0000    -0.3853     2.0850     2.0850     0.0000
 43 O      8.2700     8.0000    -0.2700     2.0577     2.0577    -0.0000
 44 C      6.2836     6.0000    -0.2836     3.8309     3.8309    -0.0000
 45 C      6.1733     6.0000    -0.1733     3.8544     3.8544    -0.0000
 46 C      6.1615     6.0000    -0.1615     3.8005     3.8005     0.0000
 47 C      5.9444     6.0000     0.0556     3.7072     3.7072     0.0000
 48 C      6.5061     6.0000    -0.5061     3.8275     3.8275     0.0000
 49 C      6.3456     6.0000    -0.3456     3.7423     3.7423    -0.0000
 50 C      6.3198     6.0000    -0.3198     3.6529     3.6529     0.0000
 51 C      6.3380     6.0000    -0.3380     3.7188     3.7188    -0.0000
 52 C      6.0589     6.0000    -0.0589     3.6850     3.6850    -0.0000
 53 C      6.5050     6.0000    -0.5050     3.8079     3.8079    -0.0000
 54 C      6.3309     6.0000    -0.3309     3.7114     3.7114    -0.0000
 55 C      6.3201     6.0000    -0.3201     3.7157     3.7157    -0.0000
 56 C      6.3349     6.0000    -0.3349     3.7200     3.7200    -0.0000
 57 C      6.0535     6.0000    -0.0535     3.6801     3.6801    -0.0000
 58 C      6.5072     6.0000    -0.5072     3.8062     3.8062     0.0000
 59 C      6.3321     6.0000    -0.3321     3.7161     3.7161    -0.0000
 60 C      6.3239     6.0000    -0.3239     3.7224     3.7224    -0.0000
 61 C      6.3114     6.0000    -0.3114     3.6760     3.6760    -0.0000
 62 C      6.0767     6.0000    -0.0767     3.7633     3.7633    -0.0000
 63 C      6.4823     6.0000    -0.4823     3.7900     3.7900     0.0000
 64 C      6.4687     6.0000    -0.4687     3.8191     3.8191    -0.0000
 65 H      0.8079     1.0000     0.1921     0.9433     0.9433    -0.0000
 66 H      0.7980     1.0000     0.2020     0.9323     0.9323     0.0000
 67 H      0.7837     1.0000     0.2163     0.9251     0.9251    -0.0000
 68 H      0.7695     1.0000     0.2305     0.9145     0.9145    -0.0000
 69 H      0.8214     1.0000     0.1786     0.9363     0.9363     0.0000
 70 H      0.8347     1.0000     0.1653     0.9530     0.9530    -0.0000
 71 H      0.8385     1.0000     0.1615     0.9586     0.9586    -0.0000
 72 H      0.8331     1.0000     0.1669     0.9511     0.9511    -0.0000
 73 H      0.8131     1.0000     0.1869     0.9635     0.9635    -0.0000
 74 H      0.8097     1.0000     0.1903     0.9506     0.9506    -0.0000
 75 H      0.8171     1.0000     0.1829     0.9727     0.9727    -0.0000
 76 H      0.8059     1.0000     0.1941     0.9534     0.9534    -0.0000
 77 H      0.8375     1.0000     0.1625     0.9569     0.9569     0.0000
 78 H      0.8176     1.0000     0.1824     0.9420     0.9420     0.0000
 79 H      0.8014     1.0000     0.1986     0.9271     0.9271    -0.0000
 80 H      0.8350     1.0000     0.1650     0.9650     0.9650    -0.0000
 81 H      0.8394     1.0000     0.1606     0.9700     0.9700    -0.0000
 82 H      0.8246     1.0000     0.1754     0.9529     0.9529    -0.0000
 83 H      0.8148     1.0000     0.1852     0.9365     0.9365     0.0000
 84 H      0.8415     1.0000     0.1585     0.9590     0.9590     0.0000
 85 H      0.8271     1.0000     0.1729     0.9415     0.9415     0.0000
 86 H      0.8370     1.0000     0.1630     0.9437     0.9437    -0.0000
 87 H      0.8342     1.0000     0.1658     0.9425     0.9425    -0.0000
 88 H      0.8485     1.0000     0.1515     0.9598     0.9598    -0.0000
 89 H      0.8497     1.0000     0.1503     0.9541     0.9541    -0.0000
 90 H      0.8494     1.0000     0.1506     0.9584     0.9584    -0.0000
 91 H      0.8200     1.0000     0.1800     0.9407     0.9407     0.0000
 92 H      0.8321     1.0000     0.1679     0.9654     0.9654    -0.0000
 93 H      0.8156     1.0000     0.1844     0.9390     0.9390    -0.0000
 94 H      0.7939     1.0000     0.2061     0.9573     0.9573     0.0000
 95 H      0.8366     1.0000     0.1634     0.9511     0.9511    -0.0000
 96 H      0.8326     1.0000     0.1674     0.9526     0.9526    -0.0000
 97 H      0.8342     1.0000     0.1658     0.9574     0.9574     0.0000
 98 H      0.8304     1.0000     0.1696     0.9517     0.9517     0.0000
 99 H      0.8474     1.0000     0.1526     0.9606     0.9606     0.0000
100 H      0.8348     1.0000     0.1652     0.9647     0.9647    -0.0000
101 H      0.8314     1.0000     0.1686     0.9476     0.9476     0.0000
102 H      0.8196     1.0000     0.1804     0.9360     0.9360     0.0000
103 H      0.8424     1.0000     0.1576     0.9545     0.9545    -0.0000
104 H      0.8247     1.0000     0.1753     0.9483     0.9483    -0.0000
105 H      0.8373     1.0000     0.1627     0.9612     0.9612    -0.0000
106 H      0.8388     1.0000     0.1612     0.9593     0.9593     0.0000
107 H      0.8345     1.0000     0.1655     0.9464     0.9464     0.0000
108 H      0.8437     1.0000     0.1563     0.9572     0.9572     0.0000
109 H      0.8374     1.0000     0.1626     0.9555     0.9555     0.0000
110 H      0.8552     1.0000     0.1448     0.9448     0.9448     0.0000
111 H      0.8413     1.0000     0.1587     0.9528     0.9528    -0.0000
112 H      0.8416     1.0000     0.1584     0.9521     0.9521     0.0000
113 H      0.8480     1.0000     0.1520     0.9545     0.9545    -0.0000
114 H      0.8454     1.0000     0.1546     0.9556     0.9556     0.0000
115 H      0.8419     1.0000     0.1581     0.9566     0.9566     0.0000
116 H      0.8394     1.0000     0.1606     0.9468     0.9468    -0.0000
117 H      0.8473     1.0000     0.1527     0.9524     0.9524     0.0000
118 H      0.8456     1.0000     0.1544     0.9556     0.9556     0.0000
119 H      0.8421     1.0000     0.1579     0.9565     0.9565     0.0000
120 H      0.8567     1.0000     0.1433     0.9451     0.9451    -0.0000
121 H      0.8480     1.0000     0.1520     0.9544     0.9544    -0.0000
122 H      0.8428     1.0000     0.1572     0.9531     0.9531     0.0000
123 H      0.8403     1.0000     0.1597     0.9522     0.9522     0.0000
124 H      0.8464     1.0000     0.1536     0.9559     0.9559    -0.0000
125 H      0.8413     1.0000     0.1587     0.9557     0.9557    -0.0000
126 H      0.8448     1.0000     0.1552     0.9501     0.9501     0.0000
127 H      0.8426     1.0000     0.1574     0.9482     0.9482     0.0000
128 H      0.8432     1.0000     0.1568     0.9569     0.9569    -0.0000
129 H      0.8512     1.0000     0.1488     0.9575     0.9575     0.0000
130 H      0.8678     1.0000     0.1322     0.9410     0.9410    -0.0000
131 H      0.8511     1.0000     0.1489     0.9564     0.9564     0.0000
132 H      0.8471     1.0000     0.1529     0.9576     0.9576     0.0000
133 H      0.8440     1.0000     0.1560     0.9513     0.9513    -0.0000
134 H      0.8501     1.0000     0.1499     0.9566     0.9566    -0.0000
135 H      0.8480     1.0000     0.1520     0.9575     0.9575    -0.0000
136 H      0.8524     1.0000     0.1476     0.9566     0.9566    -0.0000

  Mayer bond orders larger than 0.100000
B(  0-Mg,  5-N ) :   0.4070 B(  0-Mg, 16-N ) :   0.5501 B(  0-Mg, 24-N ) :   0.4820 
B(  0-Mg, 32-N ) :   0.5648 B(  1-C ,  5-N ) :   0.1338 B(  1-C ,  6-C ) :   1.4434 
B(  1-C , 36-C ) :   1.2661 B(  1-C , 40-C ) :   0.9050 B(  2-C ,  9-C ) :   1.5687 
B(  2-C , 17-C ) :   1.3139 B(  2-C , 65-H ) :   0.8441 B(  3-C , 20-C ) :   1.5147 
B(  3-C , 25-C ) :   1.3801 B(  3-C , 66-H ) :   0.8099 B(  4-C , 28-C ) :   1.3739 
B(  4-C , 33-C ) :   1.4461 B(  4-C , 67-H ) :   0.8449 B(  5-N ,  6-C ) :   0.9895 
B(  5-N ,  9-C ) :   1.2526 B(  6-C ,  7-C ) :   0.9305 B(  7-C ,  8-C ) :   0.9077 
B(  7-C , 11-C ) :   0.8660 B(  7-C , 68-H ) :   1.0018 B(  8-C ,  9-C ) :   0.9432 
B(  8-C , 10-C ) :   0.9110 B(  8-C , 69-H ) :   0.9979 B( 10-C , 70-H ) :   0.9733 
B( 10-C , 71-H ) :   0.9678 B( 10-C , 72-H ) :   0.9587 B( 11-C , 12-C ) :   0.8709 
B( 11-C , 73-H ) :   0.9945 B( 11-C , 74-H ) :   0.9591 B( 12-C , 13-C ) :   0.9814 
B( 12-C , 75-H ) :   0.9715 B( 12-C , 76-H ) :   0.9421 B( 13-C , 14-O ) :   1.9395 
B( 13-C , 15-O ) :   1.2041 B( 15-O , 45-C ) :   0.8255 B( 16-N , 17-C ) :   1.2345 
B( 16-N , 20-C ) :   1.1189 B( 17-C , 18-C ) :   1.1953 B( 18-C , 19-C ) :   1.5704 
B( 18-C , 21-C ) :   0.8516 B( 19-C , 20-C ) :   1.1483 B( 19-C , 22-C ) :   1.0267 
B( 21-C , 77-H ) :   0.9636 B( 21-C , 78-H ) :   0.9965 B( 21-C , 79-H ) :   0.9641 
B( 22-C , 23-C ) :   1.8051 B( 22-C , 80-H ) :   0.9349 B( 23-C , 81-H ) :   0.9725 
B( 23-C , 82-H ) :   0.9794 B( 24-N , 25-C ) :   1.2443 B( 24-N , 28-C ) :   1.1570 
B( 25-C , 26-C ) :   1.2045 B( 26-C , 27-C ) :   1.6175 B( 26-C , 29-C ) :   0.8863 
B( 27-C , 28-C ) :   1.1802 B( 27-C , 30-C ) :   0.8912 B( 29-C , 83-H ) :   0.9763 
B( 29-C , 84-H ) :   0.9811 B( 29-C , 85-H ) :   0.9716 B( 30-C , 31-C ) :   0.9344 
B( 30-C , 86-H ) :   0.9778 B( 30-C , 87-H ) :   0.9995 B( 31-C , 88-H ) :   0.9774 
B( 31-C , 89-H ) :   0.9688 B( 31-C , 90-H ) :   0.9677 B( 32-N , 33-C ) :   1.0782 
B( 32-N , 36-C ) :   1.2824 B( 33-C , 34-C ) :   1.2863 B( 34-C , 35-C ) :   1.4607 
B( 34-C , 37-C ) :   0.8561 B( 35-C , 36-C ) :   1.2619 B( 35-C , 38-C ) :   0.9835 
B( 35-C , 39-O ) :  -0.1087 B( 37-C , 91-H ) :   0.9670 B( 37-C , 92-H ) :   0.9877 
B( 37-C , 93-H ) :   0.9653 B( 38-C , 39-O ) :   2.1591 B( 38-C , 40-C ) :   0.9878 
B( 40-C , 41-C ) :   0.9300 B( 40-C , 94-H ) :   0.9571 B( 41-C , 42-O ) :   1.9850 
B( 41-C , 43-O ) :   1.1787 B( 43-O , 44-C ) :   0.8764 B( 44-C , 95-H ) :   0.9668 
B( 44-C , 96-H ) :   0.9682 B( 44-C , 97-H ) :   0.9651 B( 45-C , 46-C ) :   0.9772 
B( 45-C , 98-H ) :   0.9578 B( 45-C , 99-H ) :   0.9864 B( 46-C , 47-C ) :   1.8588 
B( 46-C ,100-H ) :   0.9325 B( 47-C , 48-C ) :   0.9237 B( 47-C , 49-C ) :   0.9237 
B( 48-C ,101-H ) :   0.9652 B( 48-C ,102-H ) :   0.9581 B( 48-C ,103-H ) :   0.9790 
B( 49-C , 50-C ) :   0.8570 B( 49-C ,104-H ) :   0.9908 B( 49-C ,105-H ) :   0.9977 
B( 50-C , 51-C ) :   0.8869 B( 50-C ,106-H ) :   0.9830 B( 50-C ,107-H ) :   0.9875 
B( 51-C , 52-C ) :   0.9261 B( 51-C ,108-H ) :   0.9965 B( 51-C ,109-H ) :   0.9717 
B( 52-C , 53-C ) :   0.9233 B( 52-C , 54-C ) :   0.9239 B( 52-C ,110-H ) :   0.9868 
B( 53-C ,111-H ) :   0.9786 B( 53-C ,112-H ) :   0.9796 B( 53-C ,113-H ) :   0.9594 
B( 54-C , 55-C ) :   0.8895 B( 54-C ,114-H ) :   0.9991 B( 54-C ,115-H ) :   0.9733 
B( 55-C , 56-C ) :   0.8912 B( 55-C ,116-H ) :   0.9934 B( 55-C ,117-H ) :   0.9807 
B( 56-C , 57-C ) :   0.9243 B( 56-C ,118-H ) :   0.9997 B( 56-C ,119-H ) :   0.9734 
B( 57-C , 58-C ) :   0.9195 B( 57-C , 59-C ) :   0.9259 B( 57-C ,120-H ) :   0.9859 
B( 58-C ,121-H ) :   0.9597 B( 58-C ,122-H ) :   0.9793 B( 58-C ,123-H ) :   0.9793 
B( 59-C , 60-C ) :   0.8920 B( 59-C ,124-H ) :   0.9970 B( 59-C ,125-H ) :   0.9742 
B( 60-C , 61-C ) :   0.8958 B( 60-C ,126-H ) :   0.9834 B( 60-C ,127-H ) :   0.9872 
B( 61-C , 62-C ) :   0.9322 B( 61-C ,128-H ) :   0.9783 B( 61-C ,129-H ) :   0.9823 
B( 62-C , 63-C ) :   0.9387 B( 62-C , 64-C ) :   0.9637 B( 62-C ,130-H ) :   0.9829 
B( 63-C ,131-H ) :   0.9599 B( 63-C ,132-H ) :   0.9760 B( 63-C ,133-H ) :   0.9763 
B( 64-C ,134-H ) :   0.9771 B( 64-C ,135-H ) :   0.9803 B( 64-C ,136-H ) :   0.9608 


-------
TIMINGS
-------

Total SCF time: 0 days 2 hours 26 min 2 sec 

Total time                  ....    8762.716 sec
Sum of individual times     ....    8447.202 sec  ( 96.4%)

SCF preparation             ....      28.102 sec  (  0.3%)
Fock matrix formation       ....    8236.611 sec  ( 94.0%)
  Startup                   ....       1.258 sec  (  0.0% of F)
  Split-RI-J                ....     487.334 sec  (  5.9% of F)
  Chain of spheres X        ....    6472.130 sec  ( 78.6% of F)
  XC integration            ....     961.214 sec  ( 11.7% of F)
    XC Preparation          ....       0.000 sec  (  0.0% of XC)
    Basis function eval.    ....     143.186 sec  ( 14.9% of XC)
    Density eval.           ....     464.812 sec  ( 48.4% of XC)
    XC-Functional eval.     ....      12.883 sec  (  1.3% of XC)
    XC-Potential eval.      ....     316.175 sec  ( 32.9% of XC)
  CPCM terms                ....     642.372 sec  (  7.8% of F)
Diagonalization             ....       0.000 sec  (  0.0%)
Density matrix formation    ....      12.214 sec  (  0.1%)
Total Energy calculation    ....       3.978 sec  (  0.0%)
Population analysis         ....       4.662 sec  (  0.1%)
Orbital Transformation      ....      24.082 sec  (  0.3%)
Orbital Orthonormalization  ....       0.000 sec  (  0.0%)
DIIS solution               ....      57.754 sec  (  0.7%)
SOSCF solution              ....      55.264 sec  (  0.6%)
Finished LeanSCF after 8799.0 sec

Maximum memory used throughout the entire LEANSCF-calculation: 674.4 MB


           ************************************************************
           *        Program running with 4 parallel MPI-processes     *
           *              working on a common directory               *
           ************************************************************

------------------------------------------------------------------------------
                         ORCA PROPERTY INTEGRAL CALCULATIONS
------------------------------------------------------------------------------

GBWName                                   ... tddft.gbw
Number of atoms                           ...    137
Number of basis functions                 ...   2448
Max core memory                           ...   2200 MB

Dipole integrals                          ... YES
Quadrupole integrals                      ...  NO
Linear momentum integrals                 ... YES
Angular momentum integrals                ... YES
Higher moments length integrals           ...  NO
Higher moments velocity integrals         ...  NO
Kinetic energy integrals                  ...  NO
GIAO right hand sides                     ...  NO
GIAO dipole derivative integrals          ...  NO
SOC integrals                             ...  NO
EPR diamagnetic integrals (GIAO)          ...  NO
EPR gauge integrals                       ...  NO
Field gradient integrals                  ...  NO (   0 nuclei)
Spin-dipole/Fermi contact integrals       ...  NO (   0 nuclei)
Contact density integrals                 ...  NO (   0 nuclei)
Nucleus-orbit integrals                   ...  NO (   0 nuclei)
Geometric perturbations                   ...  NO ( 137 nuclei)

Choice of electric origin   ... Center of mass
Position of electric origin ... ( -0.0351, -0.0377, -0.2776) 
Choice of magnetic origin   ... GIAO
Position of magnetic origin ... (  0.0000,  0.0000,  0.0000) 

Calculating integrals                     ... Electric Dipole (Length)     done (  0.5 sec)
Calculating integrals                     ... Linear Momentum              done (  1.2 sec)
Calculating integrals                     ... Angular Momentum  (ElOri)    done (  1.2 sec)

Property integrals calculated in   3.1 sec

Maximum memory used throughout the entire PROPINT-calculation: 471.7 MB


           ************************************************************
           *        Program running with 4 parallel MPI-processes     *
           *              working on a common directory               *
           ************************************************************
------------------------------------------------------------------------------
                          ORCA TD-DFT CALCULATION
------------------------------------------------------------------------------

Input orbitals are from        ... tddft.gbw
CI-vector output               ... tddft.cis
Solver                         ... FN-2001
Tamm-Dancoff approximation     ... deactivated
RPA-Integral strategy          ... AO-integrals
Integral handling              ... AO integral Direct
Max. core memory used          ... 2200 MB
Reference state                ... RHF
Generation of triplets         ... off
Follow IRoot                   ... off
Number of operators            ... 1
Orbital ranges used for CIS calculation:
 Operator 0:  Orbitals  65...240  to 241...2447
XAS localization array:
 Operator 0:  Orbitals  -1... -1

-------------------
XC-INTEGRATION GRID
-------------------

General Integration Accuracy     IntAcc      ... 3.467
Radial Grid Type                 RadialGrid  ... OptM3 with GC (2021)
Angular Grid (max. ang.)         AngularGrid ... 3 (Lebedev-194)
Angular grid pruning method      GridPruning ... 4 (adaptive)
Weight generation scheme         WeightScheme... mBecke (2022)
Basis function cutoff            BFCut       ... 1.0000e-11
Integration weight cutoff        WCut        ... 1.0000e-14
Partially contracted basis set               ... off
Rotationally invariant grid construction     ... off
Angular grids for H and He will be reduced by one unit

Total number of grid points                  ...   230376
Total number of batches                      ...     3674
Average number of points per batch           ...       62
Average number of grid points per atom       ...     1682

---------------------
COSX-INTEGRATION GRID
---------------------

General Integration Accuracy     IntAcc      ... 3.067
Radial Grid Type                 RadialGrid  ... OptM3 with GC (2021)
Angular Grid (max. ang.)         AngularGrid ... 2 (Lebedev-110)
Angular grid pruning method      GridPruning ... 4 (adaptive)
Weight generation scheme         WeightScheme... mBecke (2022)
Basis function cutoff            BFCut       ... 1.0000e-11
Integration weight cutoff        WCut        ... 1.0000e-14
Partially contracted basis set               ... on
Rotationally invariant grid construction     ... off
Angular grids for H and He will be reduced by one unit

Total number of grid points                  ...    90751
Total number of batches                      ...      785
Average number of points per batch           ...      115
Average number of grid points per atom       ...      662

---------------
TD-DFT XC SETUP
---------------

DFT calculation                         ... on
Name of the grid file                   ... tddft.grid_cis.tmp
RI-approximation                        ... on
Aux-basis dimension                     ... 0
Exchange functional (TD-DFT)            ... M062X
Correlation functional (TD-DFT)         ... M062X
Hybrid DFT                              ... on
   Exchange mixing (TD-DFT)             ...  0.540
   GGA exch. scaling (TD-DFT)           ...  0.460
   GGA corr. scaling (TD-DFT)           ...  1.000

Building densities             ... done
Calculating rho(r) on the grid ... done
Building xc-kernel on the grid ... done
                    *** TD-DFT CALCULATION INITIALIZED ***

---------------------------------
    LR-CPCM (non-equilibrium)
---------------------------------

Setting up CPCM data             ... done

-------------------
RPA-DIAGONALIZATION
-------------------

Dimension of the (A+B)(A-B) eigenvalue problem ... 388432
Number of roots to be determined               ...     30
Maximum size of the expansion space            ...    900
Convergence tolerance for the residual         ...    2.500e-07
Convergence tolerance for the energies         ...    2.500e-07
Orthogonality tolerance                        ...    1.000e-14
Constructing the preconditioner                ... o.k.
Building the initial guess                     ... o.k.
Number of trial vectors determined             ...    900


                       ****Iteration    0****
   Time for iteration     :  TOTAL=19162.9 TRAFO=100.1 RIJ=1240.5 COSX=12133.2 XC=2728.7 CPCM=2879.0
   Size of expansion space: 90
   Lowest Energy          :     0.088265124727
   Maximum Energy change  :     0.221534599301 (vector 29)
   Maximum residual norm  :     0.039584995982

                       ****Iteration    1****
   Time for iteration     :  TOTAL=6419.8 TRAFO=39.5 RIJ=365.0 COSX=3978.1 XC=1120.6 CPCM=886.5
   Size of expansion space: 120
   Lowest Energy          :     0.076607751888
   Maximum Energy change  :     0.015295404015 (vector 2)
   Maximum residual norm  :     0.009405926328

                       ****Iteration    2****
   Time for iteration     :  TOTAL=6001.4 TRAFO=33.9 RIJ=363.2 COSX=3858.2 XC=889.2 CPCM=838.0
   Size of expansion space: 150
   Lowest Energy          :     0.075363727918
   Maximum Energy change  :     0.006910001195 (vector 6)
   Maximum residual norm  :     0.003566650894

                       ****Iteration    3****
   Time for iteration     :  TOTAL=5260.4 TRAFO=27.0 RIJ=326.6 COSX=3220.6 XC=866.6 CPCM=799.0
   Size of expansion space: 180
   Lowest Energy          :     0.075113500614
   Maximum Energy change  :     0.002052200850 (vector 6)
   Maximum residual norm  :     0.000718817803

                       ****Iteration    4****
   Time for iteration     :  TOTAL=5347.0 TRAFO=29.8 RIJ=346.2 COSX=3296.9 XC=866.2 CPCM=790.3
   Size of expansion space: 210
   Lowest Energy          :     0.075077164452
   Maximum Energy change  :     0.000934991220 (vector 28)
   Maximum residual norm  :     0.000478074762

                       ****Iteration    5****
   Time for iteration     :  TOTAL=4217.1 TRAFO=28.8 RIJ=309.0 COSX=2445.8 XC=700.1 CPCM=717.3
   Size of expansion space: 240
   Lowest Energy          :     0.075074598549
   Maximum Energy change  :     0.000663277298 (vector 27)
   Maximum residual norm  :     0.000319124789

                       ****Iteration    6****
   Time for iteration     :  TOTAL=4203.4 TRAFO=20.7 RIJ=316.3 COSX=2482.2 XC=654.8 CPCM=713.3
   Size of expansion space: 270
   Lowest Energy          :     0.075073299824
   Maximum Energy change  :     0.000237623242 (vector 27)
   Maximum residual norm  :     0.000069206338

                       ****Iteration    7****
   Time for iteration     :  TOTAL=3356.5 TRAFO=16.1 RIJ=291.0 COSX=1933.8 XC=492.6 CPCM=615.4
   Size of expansion space: 300
   Lowest Energy          :     0.075073166745
   Maximum Energy change  :     0.000103518556 (vector 29)
   Maximum residual norm  :     0.000145192531

                       ****Iteration    8****
   Time for iteration     :  TOTAL=2362.5 TRAFO=14.6 RIJ=253.6 COSX=1218.3 XC=322.0 CPCM=547.7
   Size of expansion space: 330
   Lowest Energy          :     0.075073150495
   Maximum Energy change  :     0.000430900817 (vector 29)
   Maximum residual norm  :     0.000456983502

                       ****Iteration    9****
   Time for iteration     :  TOTAL=2379.8 TRAFO=15.1 RIJ=261.6 COSX=1205.3 XC=336.2 CPCM=555.5
   Size of expansion space: 360
   Lowest Energy          :     0.075073144635
   Maximum Energy change  :     0.000583357456 (vector 28)
   Maximum residual norm  :     0.000322107021

                       ****Iteration   10****
   Time for iteration     :  TOTAL=2418.3 TRAFO=14.2 RIJ=257.5 COSX=1265.5 XC=324.0 CPCM=551.0
   Size of expansion space: 390
   Lowest Energy          :     0.075073144323
   Maximum Energy change  :     0.000176936087 (vector 28)
   Maximum residual norm  :     0.000057486914

                       ****Iteration   11****
   Time for iteration     :  TOTAL=2364.1 TRAFO=15.6 RIJ=258.7 COSX=1188.7 XC=350.2 CPCM=544.8
   Size of expansion space: 420
   Lowest Energy          :     0.075073144141
   Maximum Energy change  :     0.000042954600 (vector 28)
   Maximum residual norm  :     0.000025480206

                       ****Iteration   12****
   Time for iteration     :  TOTAL=2398.4 TRAFO=14.3 RIJ=235.0 COSX=1287.3 XC=323.6 CPCM=531.7
   Size of expansion space: 450
   Lowest Energy          :     0.075073144131
   Maximum Energy change  :     0.000011524263 (vector 28)
   Maximum residual norm  :     0.000003021908

                       ****Iteration   13****
   Time for iteration     :  TOTAL=2374.5 TRAFO=15.1 RIJ=261.2 COSX=1202.5 XC=347.9 CPCM=541.6
   Size of expansion space: 480
   Lowest Energy          :     0.075073144128
   Maximum Energy change  :     0.000001906158 (vector 28)
   Maximum residual norm  :     0.000001456492

                       ****Iteration   14****
   Time for iteration     :  TOTAL=2348.0 TRAFO=14.2 RIJ=270.5 COSX=1184.1 XC=361.1 CPCM=511.8
   Size of expansion space: 510
   Lowest Energy          :     0.075073144128
   Maximum Energy change  :     0.000000683389 (vector 28)
   Maximum residual norm  :     0.000000193374

      *** CONVERGENCE OF RESIDUAL NORM REACHED ***

Storing the converged CI vectors               ... tddft.cis1

                 *** DAVIDSON DONE ***

Total time for solving the RPA problem: 72164.994sec

--------------------------------
TD-DFT EXCITED STATES (SINGLETS)
--------------------------------

the weight of the individual excitations are printed if larger than 1.0e-02

STATE  1:  E=   0.075073 au      2.043 eV    16476.7 cm**-1 <S**2> =   0.000000 Mult 1
   239a -> 242a  :     0.078030 
   240a -> 241a  :     0.899559 

STATE  2:  E=   0.090173 au      2.454 eV    19790.7 cm**-1 <S**2> =   0.000000 Mult 1
   239a -> 241a  :     0.736720 
   240a -> 242a  :     0.235380 

STATE  3:  E=   0.118109 au      3.214 eV    25922.0 cm**-1 <S**2> =   0.000000 Mult 1
   238a -> 241a  :     0.013054 
   239a -> 241a  :     0.222382 
   240a -> 242a  :     0.732563 

STATE  4:  E=   0.125327 au      3.410 eV    27506.1 cm**-1 <S**2> =   0.000000 Mult 1
   237a -> 241a  :     0.019165 
   238a -> 241a  :     0.763164 
   238a -> 242a  :     0.053294 
   238a -> 243a  :     0.012094 
   239a -> 241a  :     0.010111 
   239a -> 242a  :     0.096893 

STATE  5:  E=   0.129001 au      3.510 eV    28312.5 cm**-1 <S**2> =   0.000000 Mult 1
   237a -> 242a  :     0.013491 
   238a -> 241a  :     0.092484 
   239a -> 242a  :     0.757571 
   240a -> 241a  :     0.073717 
   240a -> 243a  :     0.010547 

STATE  6:  E=   0.136908 au      3.725 eV    30047.9 cm**-1 <S**2> =   0.000000 Mult 1
   235a -> 241a  :     0.022975 
   237a -> 241a  :     0.864668 
   237a -> 242a  :     0.035667 
   238a -> 241a  :     0.023596 
   238a -> 242a  :     0.017580 

STATE  7:  E=   0.142759 au      3.885 eV    31331.9 cm**-1 <S**2> =   0.000000 Mult 1
   230a -> 243a  :     0.010514 
   233a -> 241a  :     0.447764 
   233a -> 242a  :     0.030296 
   233a -> 243a  :     0.336056 
   233a -> 245a  :     0.022832 
   234a -> 241a  :     0.014161 

STATE  8:  E=   0.150205 au      4.087 eV    32966.1 cm**-1 <S**2> =   0.000000 Mult 1
   235a -> 241a  :     0.724457 
   235a -> 242a  :     0.033857 
   237a -> 241a  :     0.026105 
   239a -> 242a  :     0.013728 
   240a -> 243a  :     0.142772 

STATE  9:  E=   0.153852 au      4.187 eV    33766.5 cm**-1 <S**2> =   0.000000 Mult 1
   235a -> 241a  :     0.175917 
   239a -> 243a  :     0.059148 
   240a -> 243a  :     0.702678 

STATE 10:  E=   0.158547 au      4.314 eV    34797.0 cm**-1 <S**2> =   0.000000 Mult 1
   237a -> 241a  :     0.056933 
   237a -> 242a  :     0.675961 
   238a -> 242a  :     0.216115 

STATE 11:  E=   0.163784 au      4.457 eV    35946.4 cm**-1 <S**2> =   0.000000 Mult 1
   234a -> 241a  :     0.031254 
   234a -> 243a  :     0.012452 
   239a -> 243a  :     0.799477 
   240a -> 243a  :     0.075719 
   240a -> 245a  :     0.011441 

STATE 12:  E=   0.168842 au      4.594 eV    37056.5 cm**-1 <S**2> =   0.000000 Mult 1
   232a -> 242a  :     0.038183 
   234a -> 241a  :     0.756701 
   235a -> 242a  :     0.028747 
   237a -> 242a  :     0.016968 
   238a -> 242a  :     0.078478 
   239a -> 243a  :     0.023510 

STATE 13:  E=   0.171881 au      4.677 eV    37723.5 cm**-1 <S**2> =   0.000000 Mult 1
   228a -> 241a  :     0.010186 
   230a -> 241a  :     0.841273 
   233a -> 241a  :     0.041549 

STATE 14:  E=   0.172619 au      4.697 eV    37885.5 cm**-1 <S**2> =   0.000000 Mult 1
   234a -> 241a  :     0.072526 
   237a -> 242a  :     0.195905 
   238a -> 241a  :     0.060744 
   238a -> 242a  :     0.535605 
   240a -> 244a  :     0.073366 

STATE 15:  E=   0.173045 au      4.709 eV    37979.0 cm**-1 <S**2> =   0.000000 Mult 1
   237a -> 242a  :     0.012136 
   238a -> 242a  :     0.035717 
   240a -> 244a  :     0.659935 
   240a -> 245a  :     0.257483 

STATE 16:  E=   0.180358 au      4.908 eV    39584.0 cm**-1 <S**2> =   0.000000 Mult 1
   230a -> 241a  :     0.011950 
   232a -> 241a  :     0.824000 
   233a -> 241a  :     0.011585 
   238a -> 242a  :     0.010365 
   240a -> 243a  :     0.016121 
   240a -> 245a  :     0.040816 

STATE 17:  E=   0.184298 au      5.015 eV    40448.7 cm**-1 <S**2> =   0.000000 Mult 1
   239a -> 244a  :     0.724733 
   239a -> 245a  :     0.217475 

STATE 18:  E=   0.185344 au      5.043 eV    40678.2 cm**-1 <S**2> =   0.000000 Mult 1
   232a -> 241a  :     0.050920 
   238a -> 242a  :     0.010525 
   239a -> 243a  :     0.018339 
   239a -> 245a  :     0.025167 
   240a -> 244a  :     0.204493 
   240a -> 245a  :     0.608226 
   240a -> 250a  :     0.016832 

STATE 19:  E=   0.191309 au      5.206 eV    41987.5 cm**-1 <S**2> =   0.000000 Mult 1
   223a -> 241a  :     0.054335 
   225a -> 241a  :     0.016823 
   227a -> 241a  :     0.012511 
   228a -> 241a  :     0.033212 
   230a -> 242a  :     0.044099 
   236a -> 241a  :     0.780532 

STATE 20:  E=   0.192484 au      5.238 eV    42245.5 cm**-1 <S**2> =   0.000000 Mult 1
   215a -> 241a  :     0.015896 
   217a -> 241a  :     0.107652 
   223a -> 241a  :     0.093102 
   225a -> 241a  :     0.092453 
   228a -> 241a  :     0.014098 
   230a -> 242a  :     0.235083 
   233a -> 242a  :     0.013400 
   235a -> 242a  :     0.111765 
   236a -> 241a  :     0.166192 
   239a -> 245a  :     0.032189 

STATE 21:  E=   0.192800 au      5.246 eV    42314.6 cm**-1 <S**2> =   0.000000 Mult 1
   217a -> 241a  :     0.026946 
   223a -> 241a  :     0.024124 
   225a -> 241a  :     0.038370 
   230a -> 242a  :     0.055885 
   232a -> 241a  :     0.013667 
   234a -> 241a  :     0.011187 
   234a -> 242a  :     0.043193 
   235a -> 241a  :     0.013904 
   235a -> 242a  :     0.562681 
   239a -> 244a  :     0.019799 
   239a -> 245a  :     0.066984 
   240a -> 246a  :     0.015731 

STATE 22:  E=   0.195433 au      5.318 eV    42892.6 cm**-1 <S**2> =   0.000000 Mult 1
   234a -> 241a  :     0.016993 
   235a -> 242a  :     0.155128 
   239a -> 244a  :     0.148440 
   239a -> 245a  :     0.491403 
   239a -> 250a  :     0.037758 
   240a -> 245a  :     0.010338 
   240a -> 246a  :     0.025390 

STATE 23:  E=   0.198222 au      5.394 eV    43504.6 cm**-1 <S**2> =   0.000000 Mult 1
   216a -> 241a  :     0.010638 
   217a -> 241a  :     0.114746 
   220a -> 241a  :     0.040028 
   223a -> 241a  :     0.205609 
   225a -> 241a  :     0.025406 
   227a -> 241a  :     0.065548 
   228a -> 241a  :     0.155431 
   230a -> 242a  :     0.011951 
   233a -> 241a  :     0.074441 
   233a -> 243a  :     0.039532 
   236a -> 241a  :     0.032378 
   240a -> 247a  :     0.022622 
   240a -> 249a  :     0.019189 
   240a -> 250a  :     0.014665 

STATE 24:  E=   0.199039 au      5.416 eV    43684.1 cm**-1 <S**2> =   0.000000 Mult 1
   217a -> 241a  :     0.011789 
   223a -> 241a  :     0.010633 
   239a -> 245a  :     0.016949 
   240a -> 247a  :     0.299280 
   240a -> 248a  :     0.062644 
   240a -> 249a  :     0.325495 
   240a -> 250a  :     0.176198 

STATE 25:  E=   0.201580 au      5.485 eV    44241.8 cm**-1 <S**2> =   0.000000 Mult 1
   234a -> 242a  :     0.013606 
   234a -> 246a  :     0.017550 
   239a -> 244a  :     0.010280 
   239a -> 245a  :     0.019168 
   239a -> 246a  :     0.183123 
   240a -> 246a  :     0.692351 

STATE 26:  E=   0.202660 au      5.515 eV    44478.6 cm**-1 <S**2> =   0.000000 Mult 1
   225a -> 241a  :     0.025916 
   234a -> 242a  :     0.674818 
   234a -> 243a  :     0.012562 
   235a -> 242a  :     0.029795 
   239a -> 247a  :     0.012023 
   239a -> 250a  :     0.033183 
   240a -> 245a  :     0.010967 
   240a -> 246a  :     0.013029 
   240a -> 250a  :     0.046403 

STATE 27:  E=   0.207075 au      5.635 eV    45447.8 cm**-1 <S**2> =   0.000000 Mult 1
   233a -> 241a  :     0.022393 
   233a -> 243a  :     0.018027 
   239a -> 245a  :     0.014891 
   239a -> 246a  :     0.015948 
   239a -> 247a  :     0.236886 
   239a -> 248a  :     0.050789 
   239a -> 249a  :     0.261234 
   239a -> 250a  :     0.155236 
   240a -> 249a  :     0.027946 
   240a -> 250a  :     0.038975 
   240a -> 252a  :     0.028833 

STATE 28:  E=   0.208022 au      5.661 eV    45655.5 cm**-1 <S**2> =   0.000000 Mult 1
   223a -> 241a  :     0.045985 
   223a -> 242a  :     0.010530 
   227a -> 241a  :     0.010176 
   228a -> 241a  :     0.022785 
   230a -> 241a  :     0.032110 
   230a -> 242a  :     0.077394 
   232a -> 241a  :     0.011021 
   233a -> 241a  :     0.281623 
   233a -> 243a  :     0.205567 
   233a -> 244a  :     0.010346 
   233a -> 245a  :     0.024491 
   233a -> 249a  :     0.010642 
   239a -> 247a  :     0.015652 
   239a -> 249a  :     0.020448 
   239a -> 250a  :     0.010867 

STATE 29:  E=   0.208422 au      5.671 eV    45743.3 cm**-1 <S**2> =   0.000000 Mult 1
   220a -> 241a  :     0.018842 
   220a -> 243a  :     0.020320 
   220a -> 246a  :     0.155546 
   225a -> 241a  :     0.030966 
   225a -> 246a  :     0.048422 
   230a -> 242a  :     0.019867 
   232a -> 242a  :     0.028224 
   232a -> 243a  :     0.023426 
   233a -> 246a  :     0.017121 
   234a -> 243a  :     0.014901 
   235a -> 243a  :     0.226586 
   235a -> 245a  :     0.014155 
   237a -> 243a  :     0.033114 
   239a -> 246a  :     0.072551 
   239a -> 249a  :     0.013535 
   240a -> 249a  :     0.021929 
   240a -> 252a  :     0.020944 

STATE 30:  E=   0.209575 au      5.703 eV    45996.4 cm**-1 <S**2> =   0.000000 Mult 1
   217a -> 241a  :     0.074741 
   220a -> 241a  :     0.026371 
   220a -> 246a  :     0.013829 
   223a -> 241a  :     0.015714 
   225a -> 241a  :     0.093407 
   225a -> 242a  :     0.010040 
   230a -> 242a  :     0.160313 
   230a -> 243a  :     0.025523 
   233a -> 242a  :     0.114860 
   233a -> 243a  :     0.042148 
   238a -> 243a  :     0.051014 
   238a -> 244a  :     0.045617 
   238a -> 245a  :     0.073609 
   239a -> 246a  :     0.033064 
   239a -> 250a  :     0.018469 
   240a -> 246a  :     0.016749 
   240a -> 252a  :     0.010539 


-----------------------------
 TD-DFT-EXCITATION SPECTRA
-----------------------------

Center of mass = ( -0.0351, -0.0377, -0.2776)
Generating RPA transition densities
 done

----------------------------------------------------------------------------------------------------
                     ABSORPTION SPECTRUM VIA TRANSITION ELECTRIC DIPOLE MOMENTS    
----------------------------------------------------------------------------------------------------
     Transition      Energy     Energy  Wavelength fosc(D2)      D2        DX        DY        DZ   
                      (eV)      (cm-1)    (nm)                 (au**2)    (au)      (au)      (au)  
----------------------------------------------------------------------------------------------------
  0-1A  ->  1-1A    2.042844   16476.7   606.9   0.408783903   8.16771   0.43327   2.04622  -1.94755
  0-1A  ->  2-1A    2.453736   19790.7   505.3   0.077143089   1.28325  -0.84029   0.75685  -0.06591
  0-1A  ->  3-1A    3.213919   25922.0   385.8   1.238026178  15.72305   3.28328  -2.14844  -0.57213
  0-1A  ->  4-1A    3.410317   27506.1   363.6   0.285694056   3.41939   0.35771  -1.49870   1.02241
  0-1A  ->  5-1A    3.510307   28312.5   353.2   0.997955095  11.60400   0.83105   2.31837  -2.35341
  0-1A  ->  6-1A    3.725462   30047.9   332.8   0.029651244   0.32487   0.40575   0.13605  -0.37646
  0-1A  ->  7-1A    3.884658   31331.9   319.2   0.003058185   0.03213   0.17694  -0.02870   0.00154
  0-1A  ->  8-1A    4.087275   32966.1   303.3   0.078568389   0.78461   0.73400  -0.42251  -0.25951
  0-1A  ->  9-1A    4.186518   33766.5   296.2   0.141279371   1.37742  -1.04946   0.50433   0.14734
  0-1A  -> 10-1A    4.314282   34797.0   287.4   0.064900593   0.61402   0.03237  -0.59919   0.50393
  0-1A  -> 11-1A    4.456791   35946.4   278.2   0.172684385   1.58151  -0.95846  -0.17361   0.79544
  0-1A  -> 12-1A    4.594414   37056.5   269.9   0.083268229   0.73976   0.10466   0.65834  -0.54350
  0-1A  -> 13-1A    4.677120   37723.5   265.1   0.001298049   0.01133  -0.09089   0.00887   0.05467
  0-1A  -> 14-1A    4.697198   37885.5   264.0   0.050129234   0.43561   0.10120  -0.48935   0.43116
  0-1A  -> 15-1A    4.708794   37979.0   263.3   0.004692832   0.04068   0.08807  -0.16871   0.06678
  0-1A  -> 16-1A    4.907790   39584.0   252.6   0.071961982   0.59849   0.48484   0.17379  -0.57725
  0-1A  -> 17-1A    5.015003   40448.7   247.2   0.002501181   0.02036   0.09416  -0.03652   0.10078
  0-1A  -> 18-1A    5.043459   40678.2   245.8   0.190035153   1.53797   0.91014  -0.83420   0.11715
  0-1A  -> 19-1A    5.205781   41987.5   238.2   0.000776695   0.00609  -0.03422  -0.01768   0.06787
  0-1A  -> 20-1A    5.237768   42245.5   236.7   0.011131444   0.08675   0.19491   0.07980  -0.20588
  0-1A  -> 21-1A    5.246347   42314.6   236.3   0.015509813   0.12067   0.12724   0.15336  -0.28453
  0-1A  -> 22-1A    5.318009   42892.6   233.1   0.046056270   0.35349   0.21129  -0.49937   0.24389
  0-1A  -> 23-1A    5.393888   43504.6   229.9   0.003852747   0.02915  -0.02590  -0.15350   0.07016
  0-1A  -> 24-1A    5.416140   43684.1   228.9   0.027374056   0.20630  -0.26847  -0.22988   0.28526
  0-1A  -> 25-1A    5.485280   44241.8   226.0   0.011431376   0.08506  -0.11894  -0.08878   0.25107
  0-1A  -> 26-1A    5.514646   44478.6   224.8   0.003071068   0.02273  -0.14024  -0.05271  -0.01692
  0-1A  -> 27-1A    5.634804   45447.8   220.0   0.013990762   0.10135   0.02291   0.27051  -0.16627
  0-1A  -> 28-1A    5.660561   45655.5   219.0   0.000187225   0.00135  -0.02107  -0.02710  -0.01310
  0-1A  -> 29-1A    5.671445   45743.3   218.6   0.099047744   0.71284  -0.52908   0.65032  -0.10002
  0-1A  -> 30-1A    5.702823   45996.4   217.4   0.033310487   0.23841  -0.23364   0.36684  -0.22193

----------------------------------------------------------------------------------------------------
                     ABSORPTION SPECTRUM VIA TRANSITION VELOCITY DIPOLE MOMENTS    
----------------------------------------------------------------------------------------------------
     Transition      Energy     Energy  Wavelength fosc(P2)      P2        PX        PY        PZ   
                      (eV)      (cm-1)    (nm)                 (au**2)    (au)      (au)      (au)  
----------------------------------------------------------------------------------------------------
  0-1A  ->  1-1A    2.042844   16476.7   606.9   0.437312303   0.04925  -0.03364  -0.15868   0.15144
  0-1A  ->  2-1A    2.453736   19790.7   505.3   0.083486096   0.01129   0.07892  -0.07090   0.00606
  0-1A  ->  3-1A    3.213919   25922.0   385.8   1.330905308   0.23579  -0.40188   0.26353   0.06951
  0-1A  ->  4-1A    3.410317   27506.1   363.6   0.307062545   0.05772  -0.04585   0.19465  -0.13317
  0-1A  ->  5-1A    3.510307   28312.5   353.2   1.072900475   0.20761  -0.11115  -0.30989   0.31500
  0-1A  ->  6-1A    3.725462   30047.9   332.8   0.032004292   0.00657  -0.05823  -0.01864   0.05324
  0-1A  ->  7-1A    3.884658   31331.9   319.2   0.003281455   0.00070  -0.02610   0.00463   0.00045
  0-1A  ->  8-1A    4.087275   32966.1   303.3   0.084503896   0.01904  -0.11450   0.06514   0.04107
  0-1A  ->  9-1A    4.186518   33766.5   296.2   0.153657079   0.03546   0.16855  -0.08057  -0.02365
  0-1A  -> 10-1A    4.314282   34797.0   287.4   0.070000470   0.01665  -0.00564   0.09865  -0.08297
  0-1A  -> 11-1A    4.456791   35946.4   278.2   0.185782779   0.04564   0.16292   0.02951  -0.13501
  0-1A  -> 12-1A    4.594414   37056.5   269.9   0.089956325   0.02278  -0.01898  -0.11553   0.09526
  0-1A  -> 13-1A    4.677120   37723.5   265.1   0.001467583   0.00038   0.01672  -0.00171  -0.00979
  0-1A  -> 14-1A    4.697198   37885.5   264.0   0.053490453   0.01385  -0.01777   0.08734  -0.07686
  0-1A  -> 15-1A    4.708794   37979.0   263.3   0.005189796   0.00135  -0.01634   0.03073  -0.01167
  0-1A  -> 16-1A    4.907790   39584.0   252.6   0.077902194   0.02108  -0.09122  -0.03242   0.10818
  0-1A  -> 17-1A    5.015003   40448.7   247.2   0.002810925   0.00078  -0.01862   0.00608  -0.01983
  0-1A  -> 18-1A    5.043459   40678.2   245.8   0.204121558   0.05675  -0.17536   0.15971  -0.02217
  0-1A  -> 19-1A    5.205781   41987.5   238.2   0.000850757   0.00024   0.00728   0.00396  -0.01325
  0-1A  -> 20-1A    5.237768   42245.5   236.7   0.012161633   0.00351  -0.03948  -0.01629   0.04107
  0-1A  -> 21-1A    5.246347   42314.6   236.3   0.016894946   0.00489  -0.02584  -0.03060   0.05729
  0-1A  -> 22-1A    5.318009   42892.6   233.1   0.049487771   0.01451  -0.04375   0.10093  -0.04905
  0-1A  -> 23-1A    5.393888   43504.6   229.9   0.004299970   0.00128   0.00637   0.03257  -0.01330
  0-1A  -> 24-1A    5.416140   43684.1   228.9   0.029263267   0.00874   0.05512   0.04737  -0.05878
  0-1A  -> 25-1A    5.485280   44241.8   226.0   0.012534219   0.00379   0.02536   0.01834  -0.05302
  0-1A  -> 26-1A    5.514646   44478.6   224.8   0.003326893   0.00101   0.02958   0.01108   0.00373
  0-1A  -> 27-1A    5.634804   45447.8   220.0   0.014931473   0.00464  -0.00481  -0.05808   0.03524
  0-1A  -> 28-1A    5.660561   45655.5   219.0   0.000180292   0.00006   0.00410   0.00591   0.00214
  0-1A  -> 29-1A    5.671445   45743.3   218.6   0.105051874   0.03284   0.11591  -0.13780   0.02046
  0-1A  -> 30-1A    5.702823   45996.4   217.4   0.036206712   0.01138   0.05142  -0.08022   0.04800

------------------------------------------------------------------------------------------
                     CD SPECTRUM VIA TRANSITION ELECTRIC DIPOLE MOMENTS    
------------------------------------------------------------------------------------------
     Transition      Energy     Energy  Wavelength    R        MX        MY        MZ   
                      (eV)      (cm-1)    (nm)   (1e40*cgs)   (au)      (au)      (au)  
------------------------------------------------------------------------------------------
  0-1A  ->  1-1A    2.042844   16476.7   606.9  -14.12264  -0.51216  -1.40248  -1.60285
  0-1A  ->  2-1A    2.453736   19790.7   505.3    3.37428   0.14323   0.13591  -0.15682
  0-1A  ->  3-1A    3.213919   25922.0   385.8   51.50886  -0.09883  -0.46853   1.38321
  0-1A  ->  4-1A    3.410317   27506.1   363.6   35.79040  -0.12363   0.55515   0.78276
  0-1A  ->  5-1A    3.510307   28312.5   353.2   11.01161  -0.25595  -1.98229  -2.03324
  0-1A  ->  6-1A    3.725462   30047.9   332.8    2.39924  -0.26458  -0.61154  -0.49266
  0-1A  ->  7-1A    3.884658   31331.9   319.2   -4.39133  -0.01478  -0.40050   0.28291
  0-1A  ->  8-1A    4.087275   32966.1   303.3    4.73416   0.15718  -0.05170   0.56743
  0-1A  ->  9-1A    4.186518   33766.5   296.2   12.04234  -0.02577   0.04974  -0.52722
  0-1A  -> 10-1A    4.314282   34797.0   287.4   -2.64823   0.33579   0.86947   1.02341
  0-1A  -> 11-1A    4.456791   35946.4   278.2   25.73542  -0.02663   0.62727   0.03619
  0-1A  -> 12-1A    4.594414   37056.5   269.9    1.13288   0.20426  -0.26221  -0.27386
  0-1A  -> 13-1A    4.677120   37723.5   265.1    8.25338   0.08636   0.21979  -0.21233
  0-1A  -> 14-1A    4.697198   37885.5   264.0   -7.81174   0.16227   0.56660   0.64342
  0-1A  -> 15-1A    4.708794   37979.0   263.3    1.17937  -0.00359   0.09883   0.21695
  0-1A  -> 16-1A    4.907790   39584.0   252.6   17.34773  -0.03762  -0.57761  -0.14175
  0-1A  -> 17-1A    5.015003   40448.7   247.2    5.42737  -0.05499   0.15499  -0.00668
  0-1A  -> 18-1A    5.043459   40678.2   245.8  -16.02195  -0.02840   0.02872   0.71529
  0-1A  -> 19-1A    5.205781   41987.5   238.2   -0.70235   0.05714   0.07524   0.07036
  0-1A  -> 20-1A    5.237768   42245.5   236.7    7.64501  -0.13315  -0.19143  -0.12150
  0-1A  -> 21-1A    5.246347   42314.6   236.3    3.77233  -0.08455  -0.48241  -0.26970
  0-1A  -> 22-1A    5.318009   42892.6   233.1   -8.77688  -0.09944   0.18539   0.54208
  0-1A  -> 23-1A    5.393888   43504.6   229.9    2.64721   0.00251   0.12784   0.20059
  0-1A  -> 24-1A    5.416140   43684.1   228.9  -10.42273  -0.17740   0.04324  -0.05462
  0-1A  -> 25-1A    5.485280   44241.8   226.0   -3.78796  -0.00936   0.28020   0.12666
  0-1A  -> 26-1A    5.514646   44478.6   224.8   -0.63732  -0.01379  -0.00569   0.05213
  0-1A  -> 27-1A    5.634804   45447.8   220.0  -14.80011   0.14049  -0.06392  -0.27344
  0-1A  -> 28-1A    5.660561   45655.5   219.0    1.14006   0.06360   0.13023  -0.18702
  0-1A  -> 29-1A    5.671445   45743.3   218.6   40.72322  -0.24977  -0.48632  -0.97722
  0-1A  -> 30-1A    5.702823   45996.4   217.4   48.52996   0.16299  -0.30202  -0.20700

------------------------------------------------------------------------------------------
                     CD SPECTRUM VIA TRANSITION VELOCITY DIPOLE MOMENTS    
------------------------------------------------------------------------------------------
     Transition      Energy     Energy  Wavelength    R        MX        MY        MZ   
                      (eV)      (cm-1)    (nm)   (1e40*cgs)   (au)      (au)      (au)  
------------------------------------------------------------------------------------------
  0-1A  ->  1-1A    2.042844   16476.7   606.9  -18.53998  -0.51216  -1.40248  -1.60285
  0-1A  ->  2-1A    2.453736   19790.7   505.3    3.74747   0.14323   0.13591  -0.15682
  0-1A  ->  3-1A    3.213919   25922.0   385.8   49.50429  -0.09883  -0.46853   1.38321
  0-1A  ->  4-1A    3.410317   27506.1   363.6   35.67129  -0.12363   0.55515   0.78276
  0-1A  ->  5-1A    3.510307   28312.5   353.2    8.27537  -0.25595  -1.98229  -2.03324
  0-1A  ->  6-1A    3.725462   30047.9   332.8    1.97246  -0.26458  -0.61154  -0.49266
  0-1A  ->  7-1A    3.884658   31331.9   319.2   -4.42920  -0.01478  -0.40050   0.28291
  0-1A  ->  8-1A    4.087275   32966.1   303.3    6.08249   0.15718  -0.05170   0.56743
  0-1A  ->  9-1A    4.186518   33766.5   296.2   12.61361  -0.02577   0.04974  -0.52722
  0-1A  -> 10-1A    4.314282   34797.0   287.4   -3.09336   0.33579   0.86947   1.02341
  0-1A  -> 11-1A    4.456791   35946.4   278.2   26.72344  -0.02663   0.62727   0.03619
  0-1A  -> 12-1A    4.594414   37056.5   269.9    0.91609   0.20426  -0.26221  -0.27386
  0-1A  -> 13-1A    4.677120   37723.5   265.1    8.62704   0.08636   0.21979  -0.21233
  0-1A  -> 14-1A    4.697198   37885.5   264.0   -7.78546   0.16227   0.56660   0.64342
  0-1A  -> 15-1A    4.708794   37979.0   263.3    1.53564  -0.00359   0.09883   0.21695
  0-1A  -> 16-1A    4.907790   39584.0   252.6   17.83131  -0.03762  -0.57761  -0.14175
  0-1A  -> 17-1A    5.015003   40448.7   247.2    5.36972  -0.05499   0.15499  -0.00668
  0-1A  -> 18-1A    5.043459   40678.2   245.8  -16.00841  -0.02840   0.02872   0.71529
  0-1A  -> 19-1A    5.205781   41987.5   238.2   -0.53845   0.05714   0.07524   0.07036
  0-1A  -> 20-1A    5.237768   42245.5   236.7    8.28990  -0.13315  -0.19143  -0.12150
  0-1A  -> 21-1A    5.246347   42314.6   236.3    3.65484  -0.08455  -0.48241  -0.26970
  0-1A  -> 22-1A    5.318009   42892.6   233.1   -8.50140  -0.09944   0.18539   0.54208
  0-1A  -> 23-1A    5.393888   43504.6   229.9    3.59959   0.00251   0.12784   0.20059
  0-1A  -> 24-1A    5.416140   43684.1   228.9  -10.70513  -0.17740   0.04324  -0.05462
  0-1A  -> 25-1A    5.485280   44241.8   226.0   -4.24338  -0.00936   0.28020   0.12666
  0-1A  -> 26-1A    5.514646   44478.6   224.8   -0.64366  -0.01379  -0.00569   0.05213
  0-1A  -> 27-1A    5.634804   45447.8   220.0  -15.02467   0.14049  -0.06392  -0.27344
  0-1A  -> 28-1A    5.660561   45655.5   219.0    1.42803   0.06360   0.13023  -0.18702
  0-1A  -> 29-1A    5.671445   45743.3   218.6   40.87819  -0.24977  -0.48632  -0.97722
  0-1A  -> 30-1A    5.702823   45996.4   217.4   51.00229   0.16299  -0.30202  -0.20700

Total run time:    72255.479 sec

           *** ORCA-CIS/TD-DFT FINISHED WITHOUT ERROR ***
-----------------------
CIS/TD-DFT TOTAL ENERGY
-----------------------

    E(SCF)  =  -2934.470111765 Eh
    DE(CIS) =      0.075073144 Eh (Root  1)
    ----------------------------- ---------
    E(tot)  =  -2934.395038621 Eh


Maximum memory used throughout the entire CIS-calculation: 1739.8 MB
=> NOW LEAVING ORCA_CIS

-------------------------   --------------------
FINAL SINGLE POINT ENERGY     -2934.395038620968
-------------------------   --------------------



           ************************************************************
           *        Program running with 4 parallel MPI-processes     *
           *              working on a common directory               *
           ************************************************************

------------------------------------------------------------------------------
                              ORCA PROPERTY CALCULATIONS
------------------------------------------------------------------------------

GBWName                                 ... tddft.gbw
Number of atoms                         ...    137
Number of basis functions               ...   2448
Max core memory                         ...   2200 MB

Electric properties:
Dipole moment                           ... YES
Quadrupole moment                       ...  NO
Static polarizability (Dipole/Dipole)   ...  NO
Static polarizability (Dipole/Quad.)    ...  NO
Static polarizability (Quad./Quad.)     ...  NO
Static polarizability (Velocity)        ...  NO
Static hyperpolarizability              ...  NO

Atomic electric properties:
Dipole moment                           ...  NO
Quadrupole moment                       ...  NO
Static polarizability                   ...  NO

Choice of electric origin               ... Center of mass
Position of electric origin             ...    -0.035095    -0.037699    -0.277632

General magnetic properties:
Magnetizability                         ...  NO

EPR properties:
g-Tensor (aka g-matrix)                 ...  NO
Zero-Field splitting spin-orbit         ...  NO
Zero-field splitting spin-spin          ...  NO
Hyperfine couplings                     ...  NO (   0 nuclei)
Quadrupole couplings                    ...  NO (   0 nuclei)
Contact density                         ...  NO (   0 nuclei)

NMR properties:
Chemical shifts                         ...  NO (   0 nuclei)
Spin-rotation constants                 ...  NO (   0 nuclei)
Spin-spin couplings                     ...  NO (   0 nuclei,    0 pairs)

Choice of magnetic origin               ... GIAO
Position of magnetic origin             ...     0.000000     0.000000     0.000000

Properties with geometric perturbations:
SCF Hessian                             ...  NO
IR spectrum                             ...  NO
VCD spectrum                            ...  NO
X-ray spectroscopy properties:
SCF XES/XAS/RIXS spectra                ...  NO

SCF SOC stabilization energy            ...  NO
Diagonal Born-Oppenheimer correction    ...  NO

-------------
DIPOLE MOMENT
-------------

Method             : SCF
Type of density    : Electron Density
Multiplicity       :   1
Irrep              :   0
Energy             : -2934.4701117650952256 Eh
Basis              : AO
                                X                 Y                 Z
Electronic contribution:    281.301149698      20.697298811     -19.392268594
Nuclear contribution   :   -282.757873404     -22.950399894      21.290669736
                        -----------------------------------------
Total Dipole Moment    :     -1.456723707      -2.253101083       1.898401142
                        -----------------------------------------
Magnitude (a.u.)       :      3.286705850
Magnitude (Debye)      :      8.354142356



--------------------
Rotational spectrum 
--------------------
 
Rotational constants in cm-1:             0.001822             0.000215             0.000199 
Rotational constants in MHz :            54.623989             6.434735             5.973951 

Dipole components along the rotational axes: 
x,y,z [a.u.] :     1.547581     2.864692    -0.448290 
x,y,z [Debye]:     3.933639     7.281470    -1.139463 

 

Dipole moment calculation done in   0.2 sec 

Maximum memory used throughout the entire PROP-calculation: 402.3 MB

--------------------------------
SUGGESTED CITATIONS FOR THIS RUN
--------------------------------

Below you find a list of papers that are relevant to this ORCA run
We neither can nor want to force you to cite these papers, but we appreciate if you do
You receive ORCA, which is the product of decades of hard work by many enthusiastic individuals, for free
The only thing we kindly ask in return is that you cite our papers,
We deeply appreciate it, if you show your appreciation for ORCA by not just citing the generic ORCA reference.

Please note that relegating all ORCA citations to the supporting information does *not* help us.
SI sections are not indexed - citations you put there will not count into any citation statistics
But we need these citations in order to attract the funding resources that allow us to do what we are doing

Therefore, if you are a happy ORCA user, please consider citing a few of the papers listed below in the main body of your paper

In addition to the list printed below, the program has created the file tddft.bibtex that contains the list in bibtex format
You can import this file easily into all common literature databanks and citation aid programs

It goes without saying that in many instances, there are alternative algorithms to achieve similar
results as the ones you have gotten from ORCA. It is, of course, also the case that in some instances
ORCA just re-implements algorithms worked out by others. We are fully aware of that and we are also
fully appreciative of our colleagues work. Hence this citation list should not be read as indicating
that the listed papers, which are focused on our own work, are the only ones worth citing. It simply
meant to make it easier for users to cite ORCA specific papers. It is not a substitute for doing your
own literature research and citing the relevant literature in a scientifically appropriate manner.

List of essential papers. We consider these as the minimum necessary citations

  1. Neese, F.
     Software update: the ORCA program system, version 6.0
     WIRES Comput. Molec. Sci. 2025 15(1), e70019
     doi.org/10.1002/wcms.70019

List of papers to cite with high priority. The work reported in these papers was absolutely
necessary for this run to complete.
Our perspective: the developers of density functionals and basis sets usually get cited in chemistry papers
Good! But without the algorithms to do something with them, the functionals or basis sets would not do anything.
Hence, in our opinion, the algorithm design and method developments papers are equally worthy of getting cited

  1. Neese, F.; Olbrich, G.
     Efficient use of the resolution of the identity approximation in time-dependent density functional calculations with hybrid density functionals
     Chem. Phys. Lett. 2002 362 , 170-178
     doi.org/10.1016/s0009-2614(02)01053-9
  2. Neese, F.
     An improvement of the resolution of the identity approximation for the formation of the Coulomb matrix
     J. Comp. Chem. 2003 24(14), 1740-1747
     doi.org/10.1002/jcc.10318
  3. Neese, F.; Wennmohs, F.; Hansen, A.; Becker, U.
     Efficient, approximate and parallel Hartree-Fock and hybrid DFT calculations. A 'chain-of-spheres' algorithm for the Hartree-Fock exchange
     Chem. Phys. 2009 356(1-3), 98-109
     doi.org/10.1016/j.chemphys.2008.10.036
  4. Garcia-Rates, M.; Neese, F.
     Effect of the Solute Cavity on the Solvation Energy and its Derivatives within the Framework of the Gaussian Charge Scheme
     J. Comput. Chem. 2020 41 , 922-939
     doi.org/10.1002/jcc.26139
  5. Helmich-Paris, B.; de Souza, B.; Neese, F.; Izsák, R.
     An improved chain of spheres for exchange algorithm
     J. Chem. Phys. 2021 155(10), 104109
     doi.org/10.1063/5.0058766
  6. Neese, F.
     The SHARK Integral Generation and Digestion System
     J. Comp. Chem. 2022 44(3), 381
     doi.org/10.1002/jcc.26942

List of suggested additional citations. These are papers that are important in the 'surrounding' of 
of this run, or papers that preceded the highly important papers. If you like your results we are grateful for a citation.

  1. Izsak, R.; Neese, F.
     An overlap fitted chain of spheres exchange method
     J. Chem. Phys. 2011 135 , 144105
     doi.org/10.1063/1.3646921
  2. Izsak, R.; Hansen, A.; Neese, F.
     The resolution of identity and chain of spheres approximations for the LPNO-CCSD singles Fock term
     Molec. Phys. 2012 110 , 2413-2417
     doi.org/10.1080/00268976.2012.687466
  3. Neese, F.
     The ORCA program system
     WIRES Comput. Molec. Sci. 2012 2(1), 73-78
     doi.org/10.1002/wcms.81
  4. Izsak, R.; Neese, F.; Klopper, W.
     Robust fitting techniques in the chain of spheres approximation to the Fock exchange: The role of the complementary space
     J. Chem. Phys. 2013 139 , 
     doi.org/10.1063/1.4819264
  5. Neese, F.
     Software update: the ORCA program system, version 4.0
     WIRES Comput. Molec. Sci. 2018 8(1), 1-6
     doi.org/10.1002/wcms.1327
  6. Neese, F.; Wennmohs, F.; Becker, U.; Riplinger, C.
     The ORCA quantum chemistry program package
     J. Chem. Phys. 2020 152(22), 224108
     doi.org/10.1063/5.0004608
  7. Neese, F.
     Software update: The ORCA program system—Version 5.0
     WIRES Comput. Molec. Sci. 2022 12(1), e1606
     doi.org/10.1002/wcms.1606

List of optional additional citations

  1. Neese, F.
     Approximate second-order SCF convergence for spin unrestricted wavefunctions
     Chem. Phys. Lett. 2000 325(1-3), 93-98
     doi.org/10.1016/s0009-2614(00)00662-x

Timings for individual modules:

Sum of individual times          ...    81185.660 sec (=1353.094 min)
Startup calculation              ...       83.656 sec (=   1.394 min)   0.1 %
SCF iterations                   ...     8836.546 sec (= 147.276 min)  10.9 %
Property integrals               ...        7.796 sec (=   0.130 min)   0.0 %
Property calculations            ...        1.570 sec (=   0.026 min)   0.0 %
CIS module                       ...    72256.092 sec (=1204.268 min)  89.0 %
                             ****ORCA TERMINATED NORMALLY****
TOTAL RUN TIME: 0 days 22 hours 33 minutes 6 seconds 177 msec
