137
Coordinates from ORCA-job chlorophyll_a_opt_b3lypd4_tzvp E -2934.171054413629
  Mg          6.47932492018479     -0.85666879397784     -0.02265048631577
  C           4.82486268853807      1.92672498111083     -1.18918993618392
  C           3.96734957106566     -1.36649173109832      2.20274909220461
  C           8.09045169627673     -3.62477658484467      1.05470149947363
  C           9.07389282097980     -0.19430114066422     -2.22831059978804
  N           4.64502312203905      0.14695088423169      0.41353681016516
  C           4.14497876284900      1.26415320739005     -0.20088418256362
  C           2.77948248978238      1.62396948140456      0.33780826135659
  C           2.68761819966300      0.74833305619566      1.60568066911510
  C           3.82005316387183     -0.24392101058695      1.40776057812836
  C           2.87345383620988      1.55250802597479      2.89679696969344
  C           1.67779203997575      1.33372160385584     -0.69127076305767
  C           0.30647597691994      1.81069569538896     -0.22811872393789
  C          -0.76997185848534      1.58164122701948     -1.26437655214926
  O          -0.57301867760576      1.40175135440779     -2.44015634366272
  O          -1.99354333306927      1.61750224763794     -0.70876402902235
  N           6.08493603764477     -2.25908366062363      1.36850337875035
  C           5.00095081104096     -2.31462845986302      2.18571453555394
  C           5.08094455779461     -3.47834652407591      3.04017013269401
  C           6.25480259540150     -4.12071414650693      2.71815602301460
  C           6.87740652715000     -3.34346015673381      1.65858808690856
  C           4.04714575338505     -3.88951980773515      4.03260163945053
  C           6.81479937747506     -5.34529931619855      3.26017191740250
  C           6.60104840786869     -5.86176396318310      4.47355251614660
  N           8.26387866368625     -1.75121310915120     -0.50841675765484
  C           8.74457365400532     -2.89358443928955      0.05036709091138
  C          10.02139804036724     -3.23447622630565     -0.53101675733295
  C          10.30227347598083     -2.26084051447517     -1.45459918767292
  C           9.19081134111735     -1.33634710213322     -1.43356600674017
  C          10.83940660369441     -4.43121930239742     -0.17326232720066
  C          11.48597203089864     -2.17574497782743     -2.36425831656195
  C          11.23927950081544     -2.84123878783500     -3.72549227281409
  N           6.89958758467412      0.52720591434230     -1.41207519822166
  C           8.00802813905841      0.69956396841652     -2.23459191378269
  C           7.85022328453542      1.89223703906187     -3.03507684292529
  C           6.61900328121809      2.41100743963968     -2.66049414569811
  C           6.08496199303001      1.54503896783333     -1.67553870800412
  C           8.81592888506548      2.43174951537901     -4.03296475045232
  C           5.67898519285454      3.49772913787134     -2.88583133889453
  O           5.74577355792745      4.46175031863108     -3.60944677917213
  C           4.43110014347023      3.18414787035239     -1.94232863023249
  C           4.16081047970938      4.38267712750974     -1.06390110458878
  O           4.66658389961059      4.58457098746432      0.01180207384793
  O           3.29320465401111      5.22145620835623     -1.65179411608854
  C           3.05868201400889      6.46063443787988     -0.96652790361907
  C          -3.11338623056954      1.45128388624229     -1.62378219796514
  C          -4.36200515987270      1.43148557700754     -0.81623102681179
  C          -5.25252175850194      0.43903286016146     -0.74208465350866
  C          -5.12223185702724     -0.87690760654219     -1.45913352076333
  C          -6.49724538309751      0.59831014915749      0.09318795442977
  C          -7.79678759530944      0.62256032191972     -0.72356392523669
  C          -9.03409593832276      0.77089258089948      0.15977662842425
  C         -10.37529079676534      0.72463791512667     -0.58586085115791
  C         -10.54150060309065      1.91930811276320     -1.52884567167188
  C         -11.53133632240154      0.62141057889628      0.41883266966469
  C         -12.90930981208846      0.37528707280468     -0.19385829536608
  C         -13.99172358378623      0.16760514555217      0.86433196894813
  C         -15.38528538081269     -0.17583307866142      0.31946175291709
  C         -15.96923684267628      0.96885396259288     -0.51249038632051
  C         -16.31650875718932     -0.57372323712113      1.47336700701959
  C         -17.67579626685792     -1.13140278070819      1.05375182761569
  C         -18.50242668741703     -1.61709490776948      2.24345269447032
  C         -19.92329484362414     -2.08597794873706      1.90430844818528
  C         -19.92949766244272     -3.29412560949537      0.96470862908568
  C         -20.70400361513319     -2.39733440905752      3.18267600323550
  H           3.19051546202403     -1.52131677111773      2.93948542210602
  H           8.60717108311758     -4.50749701068515      1.40470122280014
  H           9.89194526411887      0.01402363424058     -2.90538382473223
  H           2.74816457072711      2.68459355640764      0.59978939194981
  H           1.73311081390125      0.21904720589908      1.65525700172007
  H           2.06226147609959      2.27379196574723      3.01798581621629
  H           2.88332796292586      0.90010326920717      3.77126122192943
  H           3.81565322894618      2.10392005267255      2.87400562243243
  H           1.91377452388515      1.81477778274135     -1.63983529362540
  H           1.64846379150529      0.25979783910279     -0.89664341771152
  H          -0.00390334900614      1.33674172595034      0.70444947100815
  H           0.33029988694434      2.88754850111739     -0.02583492541067
  H           3.05832661816321     -3.52602154083882      3.75170886459776
  H           3.99658323147694     -4.97668592079556      4.11185141029290
  H           4.26431237726576     -3.50208040458160      5.03333012592962
  H           7.48489499750746     -5.88526760079009      2.59821372190164
  H           7.06980077781625     -6.79169708103498      4.76768138529440
  H           5.98454344629975     -5.37348738640453      5.21521319063763
  H          10.34740365083862     -5.36023599993415     -0.47615744507234
  H          11.81375335429039     -4.40586729667288     -0.66090846217521
  H          11.01115860730274     -4.49437408507652      0.90432338650238
  H          11.76226753982403     -1.12928292863447     -2.51788103778715
  H          12.34896672842323     -2.64468394595020     -1.88541976548648
  H          12.11744952134080     -2.75475083285297     -4.36915266714168
  H          11.01000502559698     -3.90145089017463     -3.60244130839987
  H          10.39354687462102     -2.37877919961122     -4.23777708492250
  H           9.04651683804178      1.69259859277714     -4.80477964223919
  H           8.40876334094206      3.31744341331260     -4.51775467530031
  H           9.76203042405242      2.70861494415817     -3.55930014143422
  H           3.57546084314997      3.04339022281282     -2.60584752176009
  H           2.64461467018675      6.27749485297043      0.02491672077359
  H           3.98881654348864      7.01904595200590     -0.86667102222829
  H           2.35026388528927      7.00588681508217     -1.58401337649481
  H          -3.09895294961515      2.29316500966600     -2.32086780170334
  H          -2.95656272602084      0.54557674202130     -2.20428829064062
  H          -4.55114479614917      2.33633774839853     -0.24554954245075
  H          -5.36530483782045     -1.69915368855754     -0.78037276179553
  H          -5.82489118427516     -0.94275604576854     -2.29444025533505
  H          -4.12426853910559     -1.05194182373117     -1.85513422948910
  H          -6.55071036599213     -0.22967011954811      0.81101619180234
  H          -6.42754800557246      1.51853064722384      0.67886913297876
  H          -7.73785900903374      1.44218728026351     -1.44442328124276
  H          -7.88716567813317     -0.29883911290424     -1.30726697902186
  H          -9.02350567030709     -0.03080235843799      0.90657948257969
  H          -8.97054064824928      1.71022731640972      0.72297516981876
  H         -10.38392066768499     -0.19071497889224     -1.19336373684216
  H          -9.72723066608042      1.97885364683780     -2.25192693984107
  H         -11.47182073181557      1.85998068294447     -2.09450718599856
  H         -10.55433698962237      2.85578194355567     -0.96234048121346
  H         -11.30957928171544     -0.19306574710000      1.11734524333007
  H         -11.56170399743258      1.53701424103494      1.02276835802205
  H         -13.18052900869593      1.21276518156376     -0.83968032427628
  H         -12.86335168143391     -0.50941395652012     -0.84070580587098
  H         -13.67382814412353     -0.63883910330107      1.53459974570039
  H         -14.06623970602773      1.06678569854109      1.48866189683955
  H         -15.27754854634019     -1.05146060251788     -0.33503954078815
  H         -16.08977521784755      1.86590795469596      0.10320867171356
  H         -15.32532636621866      1.22744556364739     -1.35389938039897
  H         -16.94698883703941      0.71217760119903     -0.92156510505159
  H         -15.80613884613228     -1.32584040339667      2.08538253688547
  H         -16.46588545645464      0.29544074291287      2.12607776793629
  H         -18.24676340193637     -0.36844790502888      0.51548172857604
  H         -17.51760487853064     -1.95200138949241      0.34672547950230
  H         -17.97072537442104     -2.43445884013761      2.74701471878711
  H         -18.57027829812058     -0.80563458322935      2.97688744427022
  H         -20.43160882771569     -1.25863081044555      1.39257912961212
  H         -19.39562138465234     -4.13647699542672      1.41569355598146
  H         -20.95071097900204     -3.62216670889011      0.75762408341532
  H         -19.45456068590721     -3.07242518308843      0.00798642665059
  H         -20.73949232049952     -1.53162471387185      3.84825313617227
  H         -21.73189612781749     -2.69175639084288      2.95880882890606
  H         -20.23558398727084     -3.21974749771607      3.73169889263684
