
                                 *****************
                                 * O   R   C   A *
                                 *****************

                                            #,                                       
                                            ###                                      
                                            ####                                     
                                            #####                                    
                                            ######                                   
                                           ########,                                 
                                     ,,################,,,,,                         
                               ,,#################################,,                 
                          ,,##########################################,,             
                       ,#########################################, ''#####,          
                    ,#############################################,,   '####,        
                  ,##################################################,,,,####,       
                ,###########''''           ''''###############################       
              ,#####''   ,,,,##########,,,,          '''####'''          '####       
            ,##' ,,,,###########################,,,                        '##       
           ' ,,###''''                  '''############,,,                           
         ,,##''                                '''############,,,,        ,,,,,,###''
      ,#''                                            '''#######################'''  
     '                                                          ''''####''''         
             ,#######,   #######,   ,#######,      ##                                
            ,#'     '#,  ##    ##  ,#'     '#,    #''#        ,####,    ,#,          
            ##       ##  ##   ,#'  ##            #'  '#       #'       ,# #          
            ##       ##  #######   ##           ,######,      #####,      #          
            '#,     ,#'  ##    ##  '#,     ,#' ,#      #,     #,   #      #          
             '#######'   ##     ##  '#######'  #'      '#     '####' #    #          



                #########################################################
                #                        -***-                          #
                #          Department of theory and spectroscopy        #
                #                                                       #
                #                      Frank Neese                      #
                #                                                       #
                #     Directorship, Architecture, Infrastructure        #
                #                    SHARK, DRIVERS                     #
                #        Core code/Algorithms in most modules           #
                #                                                       #
                #        Max Planck Institute fuer Kohlenforschung      #
                #                Kaiser Wilhelm Platz 1                 #
                #                 D-45470 Muelheim/Ruhr                 #
                #                      Germany                          #
                #                                                       #
                #                  All rights reserved                  #
                #                        -***-                          #
                #########################################################


                         Program Version 6.1.1  -  RELEASE   -
                                (GIT: $487d211c$)
                          ($2025-11-21 10:33:24 +0100$)


 With contributions from (in alphabetic order):
[Max-Planck-Institut fuer Kohlenforschung]                               
  Daniel Aravena         : Magnetic Suceptibility                        
  Michael Atanasov       : Ab Initio Ligand Field Theory (pilot matlab implementation)
  Alexander A. Auer      : GIAO ZORA, VPT2 properties, NMR spectrum      
  Ute Becker             : All parallelization in ORCA, NUMFREQ, NUMCALC 
  Giovanni Bistoni       : ED, misc. LED, open-shell LED, HFLD           
  Dmytro Bykov           : pre 5.0 version of the SCF Hessian            
  Marcos Casanova-Páez   : Triplet and SCS-CIS(D). UHF-(DLPNO)-IP/EA/STEOM-CCSD. UHF-CVS-IP/STEOM-CCSD   
  Vijay G. Chilkuri      : MRCI spin determinant printing, contributions to CSF-ICE 
  Pauline Colinet        : FMM embedding                                 
  Dipayan Datta          : RHF DLPNO-CCSD density                        
  Achintya Kumar Dutta   : EOM-CC, STEOM-CC                              
  Nicolas Foglia         : Exact transition moments, OPA infrastructure, MCD improvements    
  Dmitry Ganyushin       : Spin-Orbit,Spin-Spin,Magnetic field MRCI      
  Miquel Garcia-Rates    : C-PCM and meta-GGA Hessian, CCSD/C-PCM, Gaussian charge scheme 
  Tiago L. C. Gouveia    : GS-ROHF, GS-ROCIS                             
  Yang Guo               : DLPNO-NEVPT2, F12-NEVPT2, CIM, IAO-localization        
  Andreas Hansen         : Spin unrestricted coupled pair/coupled cluster methods 
  Ingolf Harden          : AUTO-CI MPn and infrastructure                
  Benjamin Helmich-Paris : MC-RPA, TRAH-(SCF,CASSCF), AVAS, COSX integrals, SCF dyn. polar., MC-PDFT, srDFT 
  Lee Huntington         : MR-EOM, pCC                                   
  Robert Izsak           : Overlap fitted RIJCOSX, COSX-SCS-MP3, EOM     
  Riya Kayal             : Wick's Theorem for AUTO-CI, AUTO-CI UHF-CCSDT 
  Emily Kempfer          : AUTO-CI RHF CISDT and CCSDT, approximate NEVPT4
  Christian Kollmar      : KDIIS, OOCD, Brueckner-CCSD(T), CCSD density, CASPT2, CASPT2-K, improved NEVPT2 
  Axel Koslowski         : Symmetry handling                             
  Simone Kossmann        : meta-GGA functionals, TD-DFT gradient, OOMP2, (MP2 Hessian; deprecated post 5.0) 
  Lucas Lang             : DCDCAS, Hyperfine gauge corrections, ICE-SOC+SSC
  Marvin Lechner         : AUTO-CI (C++ implementation), FIC-MRCC        
  Spencer Leger          : CASSCF response                               
  Dagmar Lenk            : GEPOL surface, SMD, ORCA-2-JSON               
  Dimitrios Liakos       : Extrapolation schemes; Compound Job, Property file
  Dimitrios Manganas     : Further ROCIS development; embedding schemes. LFT, Crystal Embedding 
  Dimitrios Pantazis     : SARC Basis sets                               
  Anastasios Papadopoulos: AUTO-CI, single reference methods and gradients 
  Taras Petrenko         : pre 6.0 DFT Hessian and TD-DFT gradient,  ECA, NRVS 
  Petra Pikulova         : Analytic Raman intensities                    
  Peter Pinski           : DLPNO-MP2, DLPNO-MP2 Gradient                 
  Shashank Vittal Rao    : ES-AILFT, MagRelax                            
  Christoph Reimann      : Effective Core Potentials                     
  Marius Retegan         : Local ZFS, SOC                                
  Christoph Riplinger    : Optimizer, TS searches, QM/MM, DLPNO-CCSD(T), (RO)-DLPNO pert. Triples 
  Michael Roemelt        : Original ROCIS implementation, recursive CI coupling coefficients
  Masaaki Saitow         : Open-shell DLPNO-CCSD energy and density      
  Barbara Sandhoefer     : DKH picture change effects                    
  Yorick L. A. Schmerwitz: GMF and freeze-and-release deltaSCF, NEB S-IDPP initial path                    
  Kantharuban Sivalingam : CASSCF convergence/infrastructure, NEVPT2, NEVPT3, NEVPT4(SD), FIC-MRCI and CEPA variants
  Bernardo de Souza      : ESD, SOC TD-DFT                               
  Georgi L. Stoychev     : AutoAux, RI-MP2 NMR, DLPNO-MP2 response, X2C  
  Van Anh Tran           : RI-MP2 g-tensors                              
  Willem Van den Heuvel  : Paramagnetic NMR                              
  Zikuan Wang            : NOTCH, Electric field optimization            
  Frank Wennmohs         : Technical directorship and infrastructure     
  Hang Xu                : AUTO-CI-Response properties                   
                                                                         
[FACCTs GmbH]                                                            
  Markus Bursch, Nicolas Foglia, Miquel Garcia-Rates, Ingolf Harden, Hagen Neugebauer, Anastasios Papadopoulos, 
  Christoph Riplinger, Bernardo de Souza, Georgi L. Stoychev                                                    
                                                                 
  APM, various basis sets, CI-OPT, improved COSX, DLPNO-Multilevel,           
  DOCKER, DRACO, updates on ESD, Fragmentator, GOAT, IRC, LR-CPCM, L-BFGS, MBIS, meta-GGA TD-DFT gradient, ML-optimized integration grids, 
  MM, NACMEs, nearIR, NEB, NEB-TS, NL-DFT gradient (VV10), 2- and 3-layer-ONIOM, interface openCOSMO-RS, QMMM,   
  Crystal-QMMM, RESP, rigid body optimization, SF, symmetry and pop. for TD-DFT, various functionals, SOLVATOR                                   
                                                                         
[Other institutions]                                                     
  V. Asgeirsson          : NEB                                           
  Christoph Bannwarth    : sTDA-DFT, sTD-DFT, PBEh-3c, B97-3c, D3        
  Giovanni Bistoni       : ETS/NOCV, ADLD/ADEX, COVALED                  
  Martin Brehm           : Molecular dynamics                            
  Ronald Cardenas        : ETS/NOCV                                      
  Martina Colucci        : COVALED                                       
  Sebastian Ehlert       : rSCAN, r2SCAN, r2SCAN-3c, D4, dhf basis sets  
  Marvin Friede          : D4 for Fr, Ra, Ac-Lr                          
  Lars Goerigk           : TD-DFT with DH, B97 family of functionals     
  Stefan Grimme          : VdW corrections, initial TS optimization, DFT functionals, gCP, sTDA/sTD-DF 
  Waldemar Hujo          : DFT-NL                                        
  H. Jonsson             : NEB                                           
  Holger Kruse           : gCP                                           
  Marcel Mueller         : wB97X-3c, vDZP basis set                      
  Hagen Neugebauer       : wr2SCAN, Native XTB                           
  Gianluca Regni         : ADLD/ADEX                                     
  Tobias Risthaus        : pre 6.0 range-separated hybrid DFT and stability analysis
  Lukas Wittmann         : regularized MP2, r2SCAN double-hybrids, wr2SCAN        
                                                                         
We gratefully acknowledge several colleagues who have allowed us to      
interface, adapt or use parts of their codes:                            
  Ed Valeev, F. Pavosevic, A. Kumar             : LibInt (2-el integral package), F12 methods 
  Garnet Chan, S. Sharma, J. Yang, R. Olivares  : DMRG                   
  Ulf Ekstrom                                   : XCFun DFT Library      
  Mihaly Kallay                                 : mrcc  (arbitrary order and MRCC methods)
  Frank Weinhold                                : gennbo (NPA and NBO analysis)           
  Simon Mueller                                 : openCOSMO-RS                            
  Christopher J. Cramer and Donald G. Truhlar   : smd solvation model                     
  S Lehtola, MJT Oliveira, MAL Marques          : LibXC Library                           
  Liviu Ungur et al                             : ANISO software                          


 Your calculation uses the libint2 library for the computation of 2-el integrals
 For citations please refer to: http://libint.valeyev.net

 Your ORCA version has been built with support for libXC version: 7.0.0
 For citations please refer to: https://libxc.gitlab.io

 This ORCA versions uses:
   CBLAS   interface :  Fast vector & matrix operations
   LAPACKE interface :  Fast linear algebra routines
   SCALAPACK package :  Parallel linear algebra routines
   Shared memory     :  Shared parallel matrices
   BLAS/LAPACK       :  OpenBLAS 0.3.29  USE64BITINT DYNAMIC_ARCH NO_AFFINITY Haswell SINGLE_THREADED
        Core in use  :  Haswell
   Copyright (c) 2011-2014, The OpenBLAS Project


  ***********************************
  * Starting time: Tue Aug  4 20:01:00 2026
  * Host name:     steezy
  * Process ID:    1450347
  * Working dir.:  /home/jannes/chlorophyll-ladder/011-chlorophyll-a-truncation/chlorophyll_a/02_tddft_ch2cl2/pbe0
  ***********************************

NOTE: MaxCore=2200 MB was set to SCF,MP2,MDCI,CIPSI,MRCI,RASCI and CIS
      => If you want to overwrite this, your respective input block should be placed after the MaxCore statement


***************************************
The coordinates will be read from file: /home/jannes/chlorophyll-ladder/011-chlorophyll-a-truncation/chlorophyll_a/01_opt/chlorophyll_a_opt_b3lypd4_tzvp.xyz
***************************************


================================================================================

----- Orbital basis set information -----
Your calculation utilizes the basis: def2-TZVP
   F. Weigend and R. Ahlrichs, Phys. Chem. Chem. Phys. 7, 3297 (2005).

----- AuxJ basis set information -----
Your calculation utilizes the auxiliary basis: def2/J
   H-Rn: F. Weigend, Phys. Chem. Chem. Phys. 8, 1057 (2006).
   Fr-Lr: K. Eichkorn, F. Weigend, O. Treutler, R. Ahlrichs; Theor. Chem. Acc. 97, 119 (1997).

================================================================================
                                        WARNINGS
                       Please study these warnings very carefully!
================================================================================


WARNING: CIS/ROCIS methods need fully converged wavefunctions
  ===> : Setting SCFConvForced true
         You can overwrite this default with %scf ConvForced false 


================================================================================
                                       INPUT FILE
================================================================================
NAME = tddft.inp
|  1> %pal nprocs 4 end
|  2> %maxcore 2200
|  3> ! PBE0 def2-TZVP def2/J RIJCOSX DefGrid3 TightSCF CPCM(CH2Cl2)
|  4> %tddft
|  5>   nroots 30
|  6>   tda false
|  7>   triplets false
|  8> end
|  9> * xyzfile 0 1 /home/jannes/chlorophyll-ladder/011-chlorophyll-a-truncation/chlorophyll_a/01_opt/chlorophyll_a_opt_b3lypd4_tzvp.xyz
| 10> 
| 11>                          ****END OF INPUT****
================================================================================

                       ****************************
                       * Single Point Calculation *
                       ****************************

---------------------------------
CARTESIAN COORDINATES (ANGSTROEM)
---------------------------------
  Mg     6.479325   -0.856669   -0.022650
  C      4.824863    1.926725   -1.189190
  C      3.967350   -1.366492    2.202749
  C      8.090452   -3.624777    1.054701
  C      9.073893   -0.194301   -2.228311
  N      4.645023    0.146951    0.413537
  C      4.144979    1.264153   -0.200884
  C      2.779482    1.623969    0.337808
  C      2.687618    0.748333    1.605681
  C      3.820053   -0.243921    1.407761
  C      2.873454    1.552508    2.896797
  C      1.677792    1.333722   -0.691271
  C      0.306476    1.810696   -0.228119
  C     -0.769972    1.581641   -1.264377
  O     -0.573019    1.401751   -2.440156
  O     -1.993543    1.617502   -0.708764
  N      6.084936   -2.259084    1.368503
  C      5.000951   -2.314628    2.185715
  C      5.080945   -3.478347    3.040170
  C      6.254803   -4.120714    2.718156
  C      6.877407   -3.343460    1.658588
  C      4.047146   -3.889520    4.032602
  C      6.814799   -5.345299    3.260172
  C      6.601048   -5.861764    4.473553
  N      8.263879   -1.751213   -0.508417
  C      8.744574   -2.893584    0.050367
  C     10.021398   -3.234476   -0.531017
  C     10.302273   -2.260841   -1.454599
  C      9.190811   -1.336347   -1.433566
  C     10.839407   -4.431219   -0.173262
  C     11.485972   -2.175745   -2.364258
  C     11.239280   -2.841239   -3.725492
  N      6.899588    0.527206   -1.412075
  C      8.008028    0.699564   -2.234592
  C      7.850223    1.892237   -3.035077
  C      6.619003    2.411007   -2.660494
  C      6.084962    1.545039   -1.675539
  C      8.815929    2.431750   -4.032965
  C      5.678985    3.497729   -2.885831
  O      5.745774    4.461750   -3.609447
  C      4.431100    3.184148   -1.942329
  C      4.160810    4.382677   -1.063901
  O      4.666584    4.584571    0.011802
  O      3.293205    5.221456   -1.651794
  C      3.058682    6.460634   -0.966528
  C     -3.113386    1.451284   -1.623782
  C     -4.362005    1.431486   -0.816231
  C     -5.252522    0.439033   -0.742085
  C     -5.122232   -0.876908   -1.459134
  C     -6.497245    0.598310    0.093188
  C     -7.796788    0.622560   -0.723564
  C     -9.034096    0.770893    0.159777
  C    -10.375291    0.724638   -0.585861
  C    -10.541501    1.919308   -1.528846
  C    -11.531336    0.621411    0.418833
  C    -12.909310    0.375287   -0.193858
  C    -13.991724    0.167605    0.864332
  C    -15.385285   -0.175833    0.319462
  C    -15.969237    0.968854   -0.512490
  C    -16.316509   -0.573723    1.473367
  C    -17.675796   -1.131403    1.053752
  C    -18.502427   -1.617095    2.243453
  C    -19.923295   -2.085978    1.904308
  C    -19.929498   -3.294126    0.964709
  C    -20.704004   -2.397334    3.182676
  H      3.190515   -1.521317    2.939485
  H      8.607171   -4.507497    1.404701
  H      9.891945    0.014024   -2.905384
  H      2.748165    2.684594    0.599789
  H      1.733111    0.219047    1.655257
  H      2.062261    2.273792    3.017986
  H      2.883328    0.900103    3.771261
  H      3.815653    2.103920    2.874006
  H      1.913775    1.814778   -1.639835
  H      1.648464    0.259798   -0.896643
  H     -0.003903    1.336742    0.704449
  H      0.330300    2.887549   -0.025835
  H      3.058327   -3.526022    3.751709
  H      3.996583   -4.976686    4.111851
  H      4.264312   -3.502080    5.033330
  H      7.484895   -5.885268    2.598214
  H      7.069801   -6.791697    4.767681
  H      5.984543   -5.373487    5.215213
  H     10.347404   -5.360236   -0.476157
  H     11.813753   -4.405867   -0.660908
  H     11.011159   -4.494374    0.904323
  H     11.762268   -1.129283   -2.517881
  H     12.348967   -2.644684   -1.885420
  H     12.117450   -2.754751   -4.369153
  H     11.010005   -3.901451   -3.602441
  H     10.393547   -2.378779   -4.237777
  H      9.046517    1.692599   -4.804780
  H      8.408763    3.317443   -4.517755
  H      9.762030    2.708615   -3.559300
  H      3.575461    3.043390   -2.605848
  H      2.644615    6.277495    0.024917
  H      3.988817    7.019046   -0.866671
  H      2.350264    7.005887   -1.584013
  H     -3.098953    2.293165   -2.320868
  H     -2.956563    0.545577   -2.204288
  H     -4.551145    2.336338   -0.245550
  H     -5.365305   -1.699154   -0.780373
  H     -5.824891   -0.942756   -2.294440
  H     -4.124269   -1.051942   -1.855134
  H     -6.550710   -0.229670    0.811016
  H     -6.427548    1.518531    0.678869
  H     -7.737859    1.442187   -1.444423
  H     -7.887166   -0.298839   -1.307267
  H     -9.023506   -0.030802    0.906579
  H     -8.970541    1.710227    0.722975
  H    -10.383921   -0.190715   -1.193364
  H     -9.727231    1.978854   -2.251927
  H    -11.471821    1.859981   -2.094507
  H    -10.554337    2.855782   -0.962340
  H    -11.309579   -0.193066    1.117345
  H    -11.561704    1.537014    1.022768
  H    -13.180529    1.212765   -0.839680
  H    -12.863352   -0.509414   -0.840706
  H    -13.673828   -0.638839    1.534600
  H    -14.066240    1.066786    1.488662
  H    -15.277549   -1.051461   -0.335040
  H    -16.089775    1.865908    0.103209
  H    -15.325326    1.227446   -1.353899
  H    -16.946989    0.712178   -0.921565
  H    -15.806139   -1.325840    2.085383
  H    -16.465885    0.295441    2.126078
  H    -18.246763   -0.368448    0.515482
  H    -17.517605   -1.952001    0.346725
  H    -17.970725   -2.434459    2.747015
  H    -18.570278   -0.805635    2.976887
  H    -20.431609   -1.258631    1.392579
  H    -19.395621   -4.136477    1.415694
  H    -20.950711   -3.622167    0.757624
  H    -19.454561   -3.072425    0.007986
  H    -20.739492   -1.531625    3.848253
  H    -21.731896   -2.691756    2.958809
  H    -20.235584   -3.219747    3.731699

----------------------------
CARTESIAN COORDINATES (A.U.)
----------------------------
  NO LB      ZA    FRAG     MASS         X           Y           Z
   0 Mg   12.0000    0    24.305   12.244150   -1.618869   -0.042803
   1 C     6.0000    0    12.011    9.117669    3.640983   -2.247243
   2 C     6.0000    0    12.011    7.497204   -2.582295    4.162593
   3 C     6.0000    0    12.011   15.288738   -6.849835    1.993097
   4 C     6.0000    0    12.011   17.147172   -0.367176   -4.210897
   5 N     7.0000    0    14.007    8.777822    0.277697    0.781471
   6 C     6.0000    0    12.011    7.832875    2.388903   -0.379616
   7 C     6.0000    0    12.011    5.252461    3.068858    0.638365
   8 C     6.0000    0    12.011    5.078862    1.414145    3.034297
   9 C     6.0000    0    12.011    7.218854   -0.460944    2.660282
  10 C     6.0000    0    12.011    5.430041    2.933815    5.474153
  11 C     6.0000    0    12.011    3.170567    2.520369   -1.306312
  12 C     6.0000    0    12.011    0.579156    3.421719   -0.431082
  13 C     6.0000    0    12.011   -1.455036    2.988869   -2.389325
  14 O     8.0000    0    15.999   -1.082848    2.648926   -4.611227
  15 O     8.0000    0    15.999   -3.767251    3.056636   -1.339370
  16 N     7.0000    0    14.007   11.498863   -4.269049    2.586097
  17 C     6.0000    0    12.011    9.450427   -4.374014    4.130402
  18 C     6.0000    0    12.011    9.601594   -6.573122    5.745089
  19 C     6.0000    0    12.011   11.819864   -7.787021    5.136570
  20 C     6.0000    0    12.011   12.996415   -6.318224    3.134277
  21 C     6.0000    0    12.011    7.647997   -7.350127    7.620513
  22 C     6.0000    0    12.011   12.878104  -10.101152    6.160832
  23 C     6.0000    0    12.011   12.474174  -11.077129    8.453789
  24 N     7.0000    0    14.007   15.616467   -3.309313   -0.960768
  25 C     6.0000    0    12.011   16.524849   -5.468082    0.095180
  26 C     6.0000    0    12.011   18.937698   -6.112274   -1.003476
  27 C     6.0000    0    12.011   19.468475   -4.272369   -2.748794
  28 C     6.0000    0    12.011   17.368116   -2.525330   -2.709047
  29 C     6.0000    0    12.011   20.483510   -8.373791   -0.327418
  30 C     6.0000    0    12.011   21.705342   -4.111562   -4.467801
  31 C     6.0000    0    12.011   21.239160   -5.369163   -7.040160
  32 N     7.0000    0    14.007   13.038331    0.996275   -2.668435
  33 C     6.0000    0    12.011   15.132980    1.321984   -4.222767
  34 C     6.0000    0    12.011   14.834772    3.575810   -5.735464
  35 C     6.0000    0    12.011   12.508103    4.556144   -5.027605
  36 C     6.0000    0    12.011   11.498912    2.919701   -3.166309
  37 C     6.0000    0    12.011   16.659691    4.595341   -7.621199
  38 C     6.0000    0    12.011   10.731727    6.609750   -5.453431
  39 O     8.0000    0    15.999   10.857938    8.431486   -6.820866
  40 C     6.0000    0    12.011    8.373566    6.017167   -3.670469
  41 C     6.0000    0    12.011    7.862792    8.282060   -2.010482
  42 O     8.0000    0    15.999    8.818566    8.663584    0.022303
  43 O     8.0000    0    15.999    6.223255    9.867122   -3.121439
  44 C     6.0000    0    12.011    5.780071   12.208830   -1.826473
  45 C     6.0000    0    12.011   -5.883447    2.742529   -3.068504
  46 C     6.0000    0    12.011   -8.242995    2.705116   -1.542453
  47 C     6.0000    0    12.011   -9.925828    0.829652   -1.402337
  48 C     6.0000    0    12.011   -9.679615   -1.657115   -2.757363
  49 C     6.0000    0    12.011  -12.278014    1.130642    0.176100
  50 C     6.0000    0    12.011  -14.733793    1.176469   -1.367338
  51 C     6.0000    0    12.011  -17.071967    1.456776    0.301934
  52 C     6.0000    0    12.011  -19.606458    1.369367   -1.107117
  53 C     6.0000    0    12.011  -19.920549    3.626967   -2.889100
  54 C     6.0000    0    12.011  -21.791068    1.174296    0.791479
  55 C     6.0000    0    12.011  -24.395060    0.709190   -0.366339
  56 C     6.0000    0    12.011  -26.440526    0.316728    1.633351
  57 C     6.0000    0    12.011  -29.073976   -0.332276    0.603695
  58 C     6.0000    0    12.011  -30.177484    1.830869   -0.968466
  59 C     6.0000    0    12.011  -30.833733   -1.084180    2.784260
  60 C     6.0000    0    12.011  -33.402414   -2.138041    1.991302
  61 C     6.0000    0    12.011  -34.964519   -3.055867    4.239511
  62 C     6.0000    0    12.011  -37.649571   -3.941927    3.598621
  63 C     6.0000    0    12.011  -37.661293   -6.224995    1.823035
  64 C     6.0000    0    12.011  -39.124897   -4.530305    6.014386
  65 H     1.0000    0     1.008    6.029200   -2.874872    5.554822
  66 H     1.0000    0     1.008   16.265196   -8.517935    2.654501
  67 H     1.0000    0     1.008   18.693067    0.026501   -5.490380
  68 H     1.0000    0     1.008    5.193278    5.073147    1.133438
  69 H     1.0000    0     1.008    3.275105    0.413939    3.127982
  70 H     1.0000    0     1.008    3.897109    4.296844    5.703167
  71 H     1.0000    0     1.008    5.448700    1.700949    7.126651
  72 H     1.0000    0     1.008    7.210540    3.975833    5.431084
  73 H     1.0000    0     1.008    3.616510    3.429433   -3.098840
  74 H     1.0000    0     1.008    3.115145    0.490947   -1.694410
  75 H     1.0000    0     1.008   -0.007376    2.526076    1.331217
  76 H     1.0000    0     1.008    0.624176    5.456676   -0.048821
  77 H     1.0000    0     1.008    5.779400   -6.663215    7.089702
  78 H     1.0000    0     1.008    7.552448   -9.404573    7.770273
  79 H     1.0000    0     1.008    8.058383   -6.617973    9.511615
  80 H     1.0000    0     1.008   14.144402  -11.121544    4.909912
  81 H     1.0000    0     1.008   13.359987  -12.834447    9.009612
  82 H     1.0000    0     1.008   11.309148  -10.154420    9.855325
  83 H     1.0000    0     1.008   19.553759  -10.129378   -0.899807
  84 H     1.0000    0     1.008   22.324758   -8.325883   -1.248936
  85 H     1.0000    0     1.008   20.808074   -8.493136    1.708924
  86 H     1.0000    0     1.008   22.227464   -2.134035   -4.758106
  87 H     1.0000    0     1.008   23.336165   -4.997728   -3.562927
  88 H     1.0000    0     1.008   22.898661   -5.205725   -8.256502
  89 H     1.0000    0     1.008   20.805894   -7.372674   -6.807627
  90 H     1.0000    0     1.008   19.640957   -4.495241   -8.008238
  91 H     1.0000    0     1.008   17.095439    3.198548   -9.079718
  92 H     1.0000    0     1.008   15.890260    6.269060   -8.537319
  93 H     1.0000    0     1.008   18.447564    5.118540   -6.726102
  94 H     1.0000    0     1.008    6.756642    5.751174   -4.924338
  95 H     1.0000    0     1.008    4.997597   11.862746    0.047086
  96 H     1.0000    0     1.008    7.537771   13.264075   -1.637771
  97 H     1.0000    0     1.008    4.441355   13.239207   -2.993351
  98 H     1.0000    0     1.008   -5.856172    4.333454   -4.385805
  99 H     1.0000    0     1.008   -5.587094    1.030991   -4.165501
 100 H     1.0000    0     1.008   -8.600417    4.415039   -0.464021
 101 H     1.0000    0     1.008  -10.138957   -3.210935   -1.474691
 102 H     1.0000    0     1.008  -11.007449   -1.781551   -4.335864
 103 H     1.0000    0     1.008   -7.793738   -1.987882   -3.505696
 104 H     1.0000    0     1.008  -12.379049   -0.434014    1.532598
 105 H     1.0000    0     1.008  -12.146305    2.869607    1.282877
 106 H     1.0000    0     1.008  -14.622434    2.725339   -2.729564
 107 H     1.0000    0     1.008  -14.904583   -0.564724   -2.470377
 108 H     1.0000    0     1.008  -17.051954   -0.058208    1.713187
 109 H     1.0000    0     1.008  -16.951865    3.231861    1.366225
 110 H     1.0000    0     1.008  -19.622766   -0.360399   -2.255131
 111 H     1.0000    0     1.008  -18.381802    3.739491   -4.255525
 112 H     1.0000    0     1.008  -21.678599    3.514854   -3.958045
 113 H     1.0000    0     1.008  -19.944806    5.396646   -1.818560
 114 H     1.0000    0     1.008  -21.372008   -0.364841    2.111477
 115 H     1.0000    0     1.008  -21.848454    2.904536    1.932752
 116 H     1.0000    0     1.008  -24.907590    2.291794   -1.586766
 117 H     1.0000    0     1.008  -24.308212   -0.962653   -1.588704
 118 H     1.0000    0     1.008  -25.839790   -1.207231    2.899973
 119 H     1.0000    0     1.008  -26.581341    2.015933    2.813163
 120 H     1.0000    0     1.008  -28.870383   -1.986973   -0.633133
 121 H     1.0000    0     1.008  -30.405269    3.526055    0.195036
 122 H     1.0000    0     1.008  -28.960670    2.319536   -2.558499
 123 H     1.0000    0     1.008  -32.025168    1.345821   -1.741506
 124 H     1.0000    0     1.008  -29.869274   -2.505475    3.940802
 125 H     1.0000    0     1.008  -31.116014    0.558302    4.017705
 126 H     1.0000    0     1.008  -34.481386   -0.696266    0.974119
 127 H     1.0000    0     1.008  -33.103476   -3.688748    0.655216
 128 H     1.0000    0     1.008  -33.959749   -4.600460    5.191106
 129 H     1.0000    0     1.008  -35.092740   -1.522429    5.625502
 130 H     1.0000    0     1.008  -38.610145   -2.378468    2.631593
 131 H     1.0000    0     1.008  -36.652413   -7.816809    2.675273
 132 H     1.0000    0     1.008  -39.591106   -6.844903    1.431702
 133 H     1.0000    0     1.008  -36.763792   -5.806042    0.015092
 134 H     1.0000    0     1.008  -39.191961   -2.894351    7.272145
 135 H     1.0000    0     1.008  -41.067332   -5.086682    5.591338
 136 H     1.0000    0     1.008  -38.239712   -6.084441    7.051889

--------------------------------
INTERNAL COORDINATES (ANGSTROEM)
--------------------------------
 Mg     0   0   0     0.000000000000     0.00000000     0.00000000
 C      1   0   0     3.441706040795     0.00000000     0.00000000
 C      1   2   0     3.394457668888    89.30889667     0.00000000
 C      1   2   3     3.379177049487   178.68175990   112.27289249
 C      1   2   3     3.469214613735    89.40493490   182.29922912
 N      1   2   3     2.135924835471    43.64663978     0.72297241
 C      6   1   2     1.369561443797   127.24560283     1.16512150
 C      7   6   1     1.511369369791   111.35686998   176.67956037
 C      8   7   6     1.543592769906   102.20898485    13.11530211
 C      6   1   2     1.349754485386   122.63215241   183.37318882
 C      9   8   7     1.532388190848   112.77664995   105.03734026
 C      8   7   6     1.535242429099   111.37164823   251.45860928
 C     12   8   7     1.523982230910   112.50920958   185.52321196
 C     13  12   8     1.511633612473   112.64445898   177.46814922
 O     14  13  12     1.205657098788   125.08662567   340.38500786
 O     14  13  12     1.344291055565   111.14830867   161.04362100
 N      1   2   3     2.014353277146   134.66866264     1.99036412
 C     17   1   2     1.358654949213   126.87482816   357.69144692
 C     18  17   1     1.445936755180   110.13316003   179.72837459
 C     19  18  17     1.376325521682   106.53231770     0.37739225
 C     17   1   2     1.374056403486   125.61365444   177.59506666
 C     19  18  17     1.490880187271   125.23758309   182.18112390
 C     20  19  18     1.451546231965   129.45157536   180.80476837
 C     23  20  19     1.335933264052   127.12610259   333.72833071
 N      1   2   3     2.054461113194   133.59421682   180.89498556
 C     25   1   2     1.359529079887   125.15624580   181.97463487
 C     26  25   1     1.443777996460   110.21707011   179.85213705
 C     27  26  25     1.371080601320   106.54412342     0.26046554
 C     25   1   2     1.373760941850   127.86735246     1.97620977
 C     27  26  25     1.493090831842   125.25889970   180.66305093
 C     28  27  26     1.495280324903   127.76173296   182.26827086
 C     31  28  27     1.535153770543   112.80223231    91.51067135
 N      1   2   3     2.005550035663    46.20171862   182.09124075
 C     33   1   2     1.391000182885   131.46322253   178.53647119
 C     34  33   1     1.445042403301   110.04801695   182.27813617
 C     35  34  33     1.387565357793   104.82885546   359.88862450
 C     33   1   2     1.330042104720   122.47532434     0.94304293
 C     35  34  33     1.489778941651   126.80960458   179.58057088
 C     36  35  34     1.454432847022   144.19495672   179.56518189
 O     39  36  35     1.207235199980   130.82562105   358.58789359
 C      2   1   3     1.517688754903   164.35575665   177.50215655
 C     41   2   1     1.510352210713   114.53659303   237.78801913
 O     42  41   2     1.205696981445   125.21920743    28.62695551
 O     42  41   2     1.342351819838   110.90379824   207.38963558
 C     44  42  41     1.435323425278   115.84767491   185.77235653
 C     16  14  13     1.455656177894   115.93602451   178.09424862
 C     46  16  14     1.487138224139   107.82408391   176.39128295
 C     47  46  16     1.335469914406   126.86357787   240.13166419
 C     48  47  46     1.504271866507   124.46393816     1.53589320
 C     48  47  46     1.507443692477   120.18853641   182.08211459
 C     50  48  47     1.535083602003   113.94616119   113.82673898
 C     51  50  48     1.527489747424   112.30801206   179.41735962
 C     52  51  50     1.535225844420   115.07823818   183.22502876
 C     53  52  51     1.531039827228   111.74457360   294.54639931
 C     53  52  51     1.535091596965   110.00198802   169.55329475
 C     55  53  52     1.527998016085   115.31140995   188.00077823
 C     56  55  53     1.527912952873   112.52332946   175.22595773
 C     57  56  55     1.535202868777   115.31959895   183.81369614
 C     58  57  56     1.530833790524   111.83105398   295.92296269
 C     58  57  56     1.535249455416   109.98772544   171.11282683
 C     60  58  57     1.527987534656   115.32662168   188.36114646
 C     61  60  58     1.527940721061   112.54865178   175.09142631
 C     62  61  60     1.534189181039   115.21877166   175.32659430
 C     63  62  61     1.530525094603   112.37773016    62.43618717
 C     63  62  61     1.529925696594   110.49264646   186.37032651
 H      3   1   2     1.081768203352   178.03369337   246.95217603
 H      4   1  33     1.081061552948   179.67226140   109.10243791
 H      5   1   2     1.082144705435   179.25352134   117.53697296
 H      8   7   6     1.092949382779   110.02050629   130.63440572
 H      9   8   7     1.092559231141   111.35078720   227.65559267
 H     11   9   8     1.092231799297   110.48570164    64.28463475
 H     11   9   8     1.091062415020   111.25922898   184.51660560
 H     11   9   8     1.091931483368   110.61375920   304.69831410
 H     12   8   7     1.089439052268   110.16398147   307.03693870
 H     12   8   7     1.093778005785   109.31283122    63.14696688
 H     13  12   8     1.091169615291   112.31783307   300.36521265
 H     13  12   8     1.095946293867   110.12438865    58.22254394
 H     22  19  18     1.090318771361   111.43379415    26.30205799
 H     22  19  18     1.091222824261   110.80820574   146.57513737
 H     22  19  18     1.094864437862   111.91932658   266.14699076
 H     23  20  19     1.085717523549   115.46876553   154.25467552
 H     24  23  20     1.082135009911   120.64931197   179.51173494
 H     24  23  20     1.080996271574   122.66867946   357.82047717
 H     30  27  26     1.094022112369   111.58670526    66.88218537
 H     30  27  26     1.089859196202   111.34243960   186.78889270
 H     30  27  26     1.093013379468   111.63089619   307.03601772
 H     31  28  27     1.093170603854   109.87990608   213.77447853
 H     31  28  27     1.092680173599   109.52404781   329.62305820
 H     32  31  28     1.092227748472   111.03983592   179.49665320
 H     32  31  28     1.091676704330   110.78182354   299.74471277
 H     32  31  28     1.091589792214   110.91481554    59.11175549
 H     38  35  34     1.093258028841   111.39260199    56.76947194
 H     38  35  34     1.088695886091   110.51508040   177.25242932
 H     38  35  34     1.093673054236   111.24366744   297.32442143
 H     41   2   1     1.091873915343   113.45746400   112.60821853
 H     45  44  42     1.089933170437   110.56657729   299.19395487
 H     45  44  42     1.089470081645   110.29001910    59.93697327
 H     45  44  42     1.086482723818   105.57310553   179.41657570
 H     46  16  14     1.093115037183   107.62327232   296.87668026
 H     46  16  14     1.087145972860   108.65137100    52.88918616
 H     47  46  16     1.086374065722   114.85632311    60.90451933
 H     49  48  47     1.093567218463   110.03786682   134.98372840
 H     49  48  47     1.093528000528   111.17010710   252.87050003
 H     49  48  47     1.087834694435   113.18723214    14.06021615
 H     50  48  47     1.097126796743   108.84654230   235.16917089
 H     50  48  47     1.093016894838   109.46381553   351.48176087
 H     51  50  48     1.093114422312   108.48613637   302.00526767
 H     51  50  48     1.094465335836   109.89914245    58.07575953
 H     52  51  50     1.095692216140   108.37733942   304.87809236
 H     52  51  50     1.097078674144   109.45671986    60.08109449
 H     53  52  51     1.098637861798   107.48942116    52.84898143
 H     54  53  52     1.090608876419   111.70967107    57.08510038
 H     54  53  52     1.090407370954   111.69577010   177.17336907
 H     54  53  52     1.094566644565   110.49338561   297.11876573
 H     55  53  52     1.095658562815   108.34990725   309.86932652
 H     55  53  52     1.097265044317   108.96307873    64.72478856
 H     56  55  53     1.091794636498   109.73417016   297.73589370
 H     56  55  53     1.096913744516   109.18287149    53.84271799
 H     57  56  55     1.095750304412   108.55144520   305.63648243
 H     57  56  55     1.097208356789   109.31761477    60.77270626
 H     58  57  56     1.098500218252   107.50312798    54.35411304
 H     59  58  57     1.094678352166   110.43194757   298.33047336
 H     59  58  57     1.090623405738   111.79940661    58.27252283
 H     59  58  57     1.090515402222   111.70819168   178.41048480
 H     60  58  57     1.095774012612   108.37083783   310.16084563
 H     60  58  57     1.097173987975   108.92946885    65.00155316
 H     61  60  58     1.094457998821   110.16503112   296.70845958
 H     61  60  58     1.094665633427   108.80902643    52.84696571
 H     62  61  60     1.097435554605   109.38484606   298.25766262
 H     62  61  60     1.095900648595   108.61617800    53.43777342
 H     63  62  61     1.097612540539   107.55338088   303.85862343
 H     64  63  62     1.094516853070   110.64487396    59.29474490
 H     64  63  62     1.092415493238   110.92854484   178.68358653
 H     64  63  62     1.090886604273   112.09956099   298.94774306
 H     65  63  62     1.092568370600   111.36705533    57.06330813
 H     65  63  62     1.092411933628   111.33184149   177.57061750
 H     65  63  62     1.094169259873   110.71834319   297.27783005

---------------------------
INTERNAL COORDINATES (A.U.)
---------------------------
 Mg     0   0   0     0.000000000000     0.00000000     0.00000000
 C      1   0   0     6.503881850565     0.00000000     0.00000000
 C      1   2   0     6.414595367388    89.30889667     0.00000000
 C      1   2   3     6.385719181563   178.68175990   112.27289249
 C      1   2   3     6.555865519757    89.40493490   182.29922912
 N      1   2   3     4.036312981681    43.64663978     0.72297241
 C      6   1   2     2.588096052353   127.24560283     1.16512150
 C      7   6   1     2.856074196101   111.35686998   176.67956037
 C      8   7   6     2.916967597424   102.20898485    13.11530211
 C      6   1   2     2.550666325412   122.63215241   183.37318882
 C      9   8   7     2.895794011557   112.77664995   105.03734026
 C      8   7   6     2.901187740173   111.37164823   251.45860928
 C     12   8   7     2.879909049382   112.50920958   185.52321196
 C     13  12   8     2.856573542404   112.64445898   177.46814922
 O     14  13  12     2.278361728128   125.08662567   340.38500786
 O     14  13  12     2.540341939297   111.14830867   161.04362100
 N      1   2   3     3.806576030773   134.66866264     1.99036412
 C     17   1   2     2.567485764510   126.87482816   357.69144692
 C     18  17   1     2.732424474260   110.13316003   179.72837459
 C     19  18  17     2.600878307106   106.53231770     0.37739225
 C     17   1   2     2.596590295149   125.61365444   177.59506666
 C     19  18  17     2.817355252431   125.23758309   182.18112390
 C     20  19  18     2.743024849138   129.45157536   180.80476837
 C     23  20  19     2.524548002254   127.12610259   333.72833071
 N      1   2   3     3.882368856727   133.59421682   180.89498556
 C     25   1   2     2.569137632088   125.15624580   181.97463487
 C     26  25   1     2.728345011491   110.21707011   179.85213705
 C     27  26  25     2.590966844026   106.54412342     0.26046554
 C     25   1   2     2.596031953574   127.86735246     1.97620977
 C     27  26  25     2.821532765249   125.25889970   180.66305093
 C     28  27  26     2.825670307508   127.76173296   182.26827086
 C     31  28  27     2.901020199782   112.80223231    91.51067135
 N      1   2   3     3.789940315278    46.20171862   182.09124075
 C     33   1   2     2.628609397886   131.46322253   178.53647119
 C     34  33   1     2.730734394142   110.04801695   182.27813617
 C     35  34  33     2.622118519145   104.82885546   359.88862450
 C     33   1   2     2.513415324504   122.47532434     0.94304293
 C     35  34  33     2.815274199803   126.80960458   179.58057088
 C     36  35  34     2.748479761051   144.19495672   179.56518189
 O     39  36  35     2.281343907192   130.82562105   358.58789359
 C      2   1   3     2.868016103299   164.35575665   177.50215655
 C     41   2   1     2.854152044011   114.53659303   237.78801913
 O     42  41   2     2.278437095426   125.21920743    28.62695551
 O     42  41   2     2.536677314864   110.90379824   207.38963558
 C     44  42  41     2.712368187377   115.84767491   185.77235653
 C     16  14  13     2.750791521371   115.93602451   178.09424862
 C     46  16  14     2.810283966908   107.82408391   176.39128295
 C     47  46  16     2.523672398318   126.86357787   240.13166419
 C     48  47  46     2.842661858662   124.46393816     1.53589320
 C     48  47  46     2.848655741088   120.18853641   182.08211459
 C     50  48  47     2.900887600459   113.94616119   113.82673898
 C     51  50  48     2.886537295005   112.30801206   179.41735962
 C     52  51  50     2.901156399672   115.07823818   183.22502876
 C     53  52  51     2.893245973588   111.74457360   294.54639931
 C     53  52  51     2.900902708747   110.00198802   169.55329475
 C     55  53  52     2.887497783577   115.31140995   188.00077823
 C     56  55  53     2.887337037401   112.52332946   175.22595773
 C     57  56  55     2.901112981998   115.31959895   183.81369614
 C     58  57  56     2.892856620643   111.83105398   295.92296269
 C     58  57  56     2.901201017988   109.98772544   171.11282683
 C     60  58  57     2.887477976544   115.32662168   188.36114646
 C     61  60  58     2.887389511672   112.54865178   175.09142631
 C     62  61  60     2.899197389790   115.21877166   175.32659430
 C     63  62  61     2.892273269893   112.37773016    62.43618717
 C     63  62  61     2.891140571812   110.49264646   186.37032651
 H      3   1   2     2.044245644720   178.03369337   246.95217603
 H      4   1  33     2.042910268983   179.67226140   109.10243791
 H      5   1   2     2.044957130545   179.25352134   117.53697296
 H      8   7   6     2.065375011691   110.02050629   130.63440572
 H      9   8   7     2.064637731945   111.35078720   227.65559267
 H     11   9   8     2.064018975432   110.48570164    64.28463475
 H     11   9   8     2.061809159403   111.25922898   184.51660560
 H     11   9   8     2.063451460571   110.61375920   304.69831410
 H     12   8   7     2.058741448386   110.16398147   307.03693870
 H     12   8   7     2.066940882240   109.31283122    63.14696688
 H     13  12   8     2.062011738556   112.31783307   300.36521265
 H     13  12   8     2.071038352894   110.12438865    58.22254394
 H     22  19  18     2.060403876546   111.43379415    26.30205799
 H     22  19  18     2.062112288937   110.80820574   146.57513737
 H     22  19  18     2.068993941328   111.91932658   266.14699076
 H     23  20  19     2.051708778307   115.46876553   154.25467552
 H     24  23  20     2.044938808660   120.64931197   179.51173494
 H     24  23  20     2.042786905064   122.66867946   357.82047717
 H     30  27  26     2.067402176831   111.58670526    66.88218537
 H     30  27  26     2.059535405358   111.34243960   186.78889270
 H     30  27  26     2.065495947906   111.63089619   307.03601772
 H     31  28  27     2.065793058937   109.87990608   213.77447853
 H     31  28  27     2.064866280067   109.52404781   329.62305820
 H     32  31  28     2.064011320482   111.03983592   179.49665320
 H     32  31  28     2.062969997966   110.78182354   299.74471277
 H     32  31  28     2.062805757869   110.91481554    59.11175549
 H     38  35  34     2.065958268220   111.39260199    56.76947194
 H     38  35  34     2.057337067839   110.51508040   177.25242932
 H     38  35  34     2.066742552556   111.24366744   297.32442143
 H     41   2   1     2.063342672771   113.45746400   112.60821853
 H     45  44  42     2.059675196402   110.56657729   299.19395487
 H     45  44  42     2.058800085410   110.29001910    59.93697327
 H     45  44  42     2.053154797254   105.57310553   179.41657570
 H     46  16  14     2.065688053147   107.62327232   296.87668026
 H     46  16  14     2.054408156300   108.65137100    52.88918616
 H     47  46  16     2.052949463210   114.85632311    60.90451933
 H     49  48  47     2.066542551928   110.03786682   134.98372840
 H     49  48  47     2.066468440772   111.17010710   252.87050003
 H     49  48  47     2.055709651459   113.18723214    14.06021615
 H     50  48  47     2.073269180030   108.84654230   235.16917089
 H     50  48  47     2.065502590993   109.46381553   351.48176087
 H     51  50  48     2.065686891209   108.48613637   302.00526767
 H     51  50  48     2.068239747800   109.89914245    58.07575953
 H     52  51  50     2.070558215575   108.37733942   304.87809236
 H     52  51  50     2.073178241497   109.45671986    60.08109449
 H     53  52  51     2.076124679155   107.48942116    52.84898143
 H     54  53  52     2.060952095656   111.70967107    57.08510038
 H     54  53  52     2.060571305511   111.69577010   177.17336907
 H     54  53  52     2.068431193553   110.49338561   297.11876573
 H     55  53  52     2.070494620007   108.34990725   309.86932652
 H     55  53  52     2.073530430084   108.96307873    64.72478856
 H     56  55  53     2.063192857464   109.73417016   297.73589370
 H     56  55  53     2.072866569669   109.18287149    53.84271799
 H     57  56  55     2.070667986500   108.55144520   305.63648243
 H     57  56  55     2.073423306182   109.31761477    60.77270626
 H     58  57  56     2.075864570548   107.50312798    54.35411304
 H     59  58  57     2.068642290326   110.43194757   298.33047336
 H     59  58  57     2.060979552090   111.79940661    58.27252283
 H     59  58  57     2.060775455023   111.70819168   178.41048480
 H     60  58  57     2.070712788505   108.37083783   310.16084563
 H     60  58  57     2.073358358534   108.92946885    65.00155316
 H     61  60  58     2.068225882851   110.16503112   296.70845958
 H     61  60  58     2.068618255392   108.80902643    52.84696571
 H     62  61  60     2.073852647832   109.38484606   298.25766262
 H     62  61  60     2.070952095832   108.61617800    53.43777342
 H     63  62  61     2.074187102777   107.55338088   303.85862343
 H     64  63  62     2.068337101264   110.64487396    59.29474490
 H     64  63  62     2.064366106672   110.92854484   178.68358653
 H     64  63  62     2.061476925239   112.09956099   298.94774306
 H     65  63  62     2.064655003018   111.36705533    57.06330813
 H     65  63  62     2.064359379984   111.33184149   177.57061750
 H     65  63  62     2.067680245315   110.71834319   297.27783005

---------------------
BASIS SET INFORMATION
---------------------
There are 5 groups of distinct atoms

 Group   1 Type Mg  : 14s8p3d contracted to 5s4p3d pattern {73211/5111/111}
 Group   2 Type C   : 11s6p2d1f contracted to 5s3p2d1f pattern {62111/411/11/1}
 Group   3 Type N   : 11s6p2d1f contracted to 5s3p2d1f pattern {62111/411/11/1}
 Group   4 Type O   : 11s6p2d1f contracted to 5s3p2d1f pattern {62111/411/11/1}
 Group   5 Type H   : 5s1p contracted to 3s1p pattern {311/1}

Atom   0Mg   basis set group =>   1
Atom   1C    basis set group =>   2
Atom   2C    basis set group =>   2
Atom   3C    basis set group =>   2
Atom   4C    basis set group =>   2
Atom   5N    basis set group =>   3
Atom   6C    basis set group =>   2
Atom   7C    basis set group =>   2
Atom   8C    basis set group =>   2
Atom   9C    basis set group =>   2
Atom  10C    basis set group =>   2
Atom  11C    basis set group =>   2
Atom  12C    basis set group =>   2
Atom  13C    basis set group =>   2
Atom  14O    basis set group =>   4
Atom  15O    basis set group =>   4
Atom  16N    basis set group =>   3
Atom  17C    basis set group =>   2
Atom  18C    basis set group =>   2
Atom  19C    basis set group =>   2
Atom  20C    basis set group =>   2
Atom  21C    basis set group =>   2
Atom  22C    basis set group =>   2
Atom  23C    basis set group =>   2
Atom  24N    basis set group =>   3
Atom  25C    basis set group =>   2
Atom  26C    basis set group =>   2
Atom  27C    basis set group =>   2
Atom  28C    basis set group =>   2
Atom  29C    basis set group =>   2
Atom  30C    basis set group =>   2
Atom  31C    basis set group =>   2
Atom  32N    basis set group =>   3
Atom  33C    basis set group =>   2
Atom  34C    basis set group =>   2
Atom  35C    basis set group =>   2
Atom  36C    basis set group =>   2
Atom  37C    basis set group =>   2
Atom  38C    basis set group =>   2
Atom  39O    basis set group =>   4
Atom  40C    basis set group =>   2
Atom  41C    basis set group =>   2
Atom  42O    basis set group =>   4
Atom  43O    basis set group =>   4
Atom  44C    basis set group =>   2
Atom  45C    basis set group =>   2
Atom  46C    basis set group =>   2
Atom  47C    basis set group =>   2
Atom  48C    basis set group =>   2
Atom  49C    basis set group =>   2
Atom  50C    basis set group =>   2
Atom  51C    basis set group =>   2
Atom  52C    basis set group =>   2
Atom  53C    basis set group =>   2
Atom  54C    basis set group =>   2
Atom  55C    basis set group =>   2
Atom  56C    basis set group =>   2
Atom  57C    basis set group =>   2
Atom  58C    basis set group =>   2
Atom  59C    basis set group =>   2
Atom  60C    basis set group =>   2
Atom  61C    basis set group =>   2
Atom  62C    basis set group =>   2
Atom  63C    basis set group =>   2
Atom  64C    basis set group =>   2
Atom  65H    basis set group =>   5
Atom  66H    basis set group =>   5
Atom  67H    basis set group =>   5
Atom  68H    basis set group =>   5
Atom  69H    basis set group =>   5
Atom  70H    basis set group =>   5
Atom  71H    basis set group =>   5
Atom  72H    basis set group =>   5
Atom  73H    basis set group =>   5
Atom  74H    basis set group =>   5
Atom  75H    basis set group =>   5
Atom  76H    basis set group =>   5
Atom  77H    basis set group =>   5
Atom  78H    basis set group =>   5
Atom  79H    basis set group =>   5
Atom  80H    basis set group =>   5
Atom  81H    basis set group =>   5
Atom  82H    basis set group =>   5
Atom  83H    basis set group =>   5
Atom  84H    basis set group =>   5
Atom  85H    basis set group =>   5
Atom  86H    basis set group =>   5
Atom  87H    basis set group =>   5
Atom  88H    basis set group =>   5
Atom  89H    basis set group =>   5
Atom  90H    basis set group =>   5
Atom  91H    basis set group =>   5
Atom  92H    basis set group =>   5
Atom  93H    basis set group =>   5
Atom  94H    basis set group =>   5
Atom  95H    basis set group =>   5
Atom  96H    basis set group =>   5
Atom  97H    basis set group =>   5
Atom  98H    basis set group =>   5
Atom  99H    basis set group =>   5
Atom 100H    basis set group =>   5
Atom 101H    basis set group =>   5
Atom 102H    basis set group =>   5
Atom 103H    basis set group =>   5
Atom 104H    basis set group =>   5
Atom 105H    basis set group =>   5
Atom 106H    basis set group =>   5
Atom 107H    basis set group =>   5
Atom 108H    basis set group =>   5
Atom 109H    basis set group =>   5
Atom 110H    basis set group =>   5
Atom 111H    basis set group =>   5
Atom 112H    basis set group =>   5
Atom 113H    basis set group =>   5
Atom 114H    basis set group =>   5
Atom 115H    basis set group =>   5
Atom 116H    basis set group =>   5
Atom 117H    basis set group =>   5
Atom 118H    basis set group =>   5
Atom 119H    basis set group =>   5
Atom 120H    basis set group =>   5
Atom 121H    basis set group =>   5
Atom 122H    basis set group =>   5
Atom 123H    basis set group =>   5
Atom 124H    basis set group =>   5
Atom 125H    basis set group =>   5
Atom 126H    basis set group =>   5
Atom 127H    basis set group =>   5
Atom 128H    basis set group =>   5
Atom 129H    basis set group =>   5
Atom 130H    basis set group =>   5
Atom 131H    basis set group =>   5
Atom 132H    basis set group =>   5
Atom 133H    basis set group =>   5
Atom 134H    basis set group =>   5
Atom 135H    basis set group =>   5
Atom 136H    basis set group =>   5
---------------------------------
AUXILIARY/J BASIS SET INFORMATION
---------------------------------
There are 5 groups of distinct atoms

 Group   1 Type Mg  : 14s5p5d2f1g contracted to 8s4p4d1f1g pattern {71111111/2111/2111/2/1}
 Group   2 Type C   : 12s5p4d2f1g contracted to 6s4p3d1f1g pattern {711111/2111/211/2/1}
 Group   3 Type N   : 12s5p4d2f1g contracted to 6s4p3d1f1g pattern {711111/2111/211/2/1}
 Group   4 Type O   : 12s5p4d2f1g contracted to 6s4p3d1f1g pattern {711111/2111/211/2/1}
 Group   5 Type H   : 5s2p1d contracted to 3s1p1d pattern {311/2/1}

Atom   0Mg   basis set group =>   1
Atom   1C    basis set group =>   2
Atom   2C    basis set group =>   2
Atom   3C    basis set group =>   2
Atom   4C    basis set group =>   2
Atom   5N    basis set group =>   3
Atom   6C    basis set group =>   2
Atom   7C    basis set group =>   2
Atom   8C    basis set group =>   2
Atom   9C    basis set group =>   2
Atom  10C    basis set group =>   2
Atom  11C    basis set group =>   2
Atom  12C    basis set group =>   2
Atom  13C    basis set group =>   2
Atom  14O    basis set group =>   4
Atom  15O    basis set group =>   4
Atom  16N    basis set group =>   3
Atom  17C    basis set group =>   2
Atom  18C    basis set group =>   2
Atom  19C    basis set group =>   2
Atom  20C    basis set group =>   2
Atom  21C    basis set group =>   2
Atom  22C    basis set group =>   2
Atom  23C    basis set group =>   2
Atom  24N    basis set group =>   3
Atom  25C    basis set group =>   2
Atom  26C    basis set group =>   2
Atom  27C    basis set group =>   2
Atom  28C    basis set group =>   2
Atom  29C    basis set group =>   2
Atom  30C    basis set group =>   2
Atom  31C    basis set group =>   2
Atom  32N    basis set group =>   3
Atom  33C    basis set group =>   2
Atom  34C    basis set group =>   2
Atom  35C    basis set group =>   2
Atom  36C    basis set group =>   2
Atom  37C    basis set group =>   2
Atom  38C    basis set group =>   2
Atom  39O    basis set group =>   4
Atom  40C    basis set group =>   2
Atom  41C    basis set group =>   2
Atom  42O    basis set group =>   4
Atom  43O    basis set group =>   4
Atom  44C    basis set group =>   2
Atom  45C    basis set group =>   2
Atom  46C    basis set group =>   2
Atom  47C    basis set group =>   2
Atom  48C    basis set group =>   2
Atom  49C    basis set group =>   2
Atom  50C    basis set group =>   2
Atom  51C    basis set group =>   2
Atom  52C    basis set group =>   2
Atom  53C    basis set group =>   2
Atom  54C    basis set group =>   2
Atom  55C    basis set group =>   2
Atom  56C    basis set group =>   2
Atom  57C    basis set group =>   2
Atom  58C    basis set group =>   2
Atom  59C    basis set group =>   2
Atom  60C    basis set group =>   2
Atom  61C    basis set group =>   2
Atom  62C    basis set group =>   2
Atom  63C    basis set group =>   2
Atom  64C    basis set group =>   2
Atom  65H    basis set group =>   5
Atom  66H    basis set group =>   5
Atom  67H    basis set group =>   5
Atom  68H    basis set group =>   5
Atom  69H    basis set group =>   5
Atom  70H    basis set group =>   5
Atom  71H    basis set group =>   5
Atom  72H    basis set group =>   5
Atom  73H    basis set group =>   5
Atom  74H    basis set group =>   5
Atom  75H    basis set group =>   5
Atom  76H    basis set group =>   5
Atom  77H    basis set group =>   5
Atom  78H    basis set group =>   5
Atom  79H    basis set group =>   5
Atom  80H    basis set group =>   5
Atom  81H    basis set group =>   5
Atom  82H    basis set group =>   5
Atom  83H    basis set group =>   5
Atom  84H    basis set group =>   5
Atom  85H    basis set group =>   5
Atom  86H    basis set group =>   5
Atom  87H    basis set group =>   5
Atom  88H    basis set group =>   5
Atom  89H    basis set group =>   5
Atom  90H    basis set group =>   5
Atom  91H    basis set group =>   5
Atom  92H    basis set group =>   5
Atom  93H    basis set group =>   5
Atom  94H    basis set group =>   5
Atom  95H    basis set group =>   5
Atom  96H    basis set group =>   5
Atom  97H    basis set group =>   5
Atom  98H    basis set group =>   5
Atom  99H    basis set group =>   5
Atom 100H    basis set group =>   5
Atom 101H    basis set group =>   5
Atom 102H    basis set group =>   5
Atom 103H    basis set group =>   5
Atom 104H    basis set group =>   5
Atom 105H    basis set group =>   5
Atom 106H    basis set group =>   5
Atom 107H    basis set group =>   5
Atom 108H    basis set group =>   5
Atom 109H    basis set group =>   5
Atom 110H    basis set group =>   5
Atom 111H    basis set group =>   5
Atom 112H    basis set group =>   5
Atom 113H    basis set group =>   5
Atom 114H    basis set group =>   5
Atom 115H    basis set group =>   5
Atom 116H    basis set group =>   5
Atom 117H    basis set group =>   5
Atom 118H    basis set group =>   5
Atom 119H    basis set group =>   5
Atom 120H    basis set group =>   5
Atom 121H    basis set group =>   5
Atom 122H    basis set group =>   5
Atom 123H    basis set group =>   5
Atom 124H    basis set group =>   5
Atom 125H    basis set group =>   5
Atom 126H    basis set group =>   5
Atom 127H    basis set group =>   5
Atom 128H    basis set group =>   5
Atom 129H    basis set group =>   5
Atom 130H    basis set group =>   5
Atom 131H    basis set group =>   5
Atom 132H    basis set group =>   5
Atom 133H    basis set group =>   5
Atom 134H    basis set group =>   5
Atom 135H    basis set group =>   5
Atom 136H    basis set group =>   5


           ************************************************************
           *        Program running with 4 parallel MPI-processes     *
           *              working on a common directory               *
           ************************************************************
------------------------------------------------------------------------------
                             ORCA STARTUP CALCULATIONS
                           -- RI-GTO INTEGRALS CHOSEN --
------------------------------------------------------------------------------
------------------------------------------------------------------------------
                   ___                                                        
                  /   \      - P O W E R E D   B Y -                         
                 /     \                                                     
                 |  |  |   _    _      __       _____    __    __             
                 |  |  |  | |  | |    /  \     |  _  \  |  |  /  |          
                  \  \/   | |  | |   /    \    | | | |  |  | /  /          
                 / \  \   | |__| |  /  /\  \   | |_| |  |  |/  /          
                |  |  |   |  __  | /  /__\  \  |    /   |      \           
                |  |  |   | |  | | |   __   |  |    \   |  |\   \          
                \     /   | |  | | |  |  |  |  | |\  \  |  | \   \       
                 \___/    |_|  |_| |__|  |__|  |_| \__\ |__|  \__/        
                                                                              
                      - O R C A' S   B I G   F R I E N D -                    
                                      &                                       
                       - I N T E G R A L  F E E D E R -                       
                                                                              
 v1 FN, 2020, v2 2021, v3 2022-2024                                           
------------------------------------------------------------------------------


----------------------
SHARK INTEGRAL PACKAGE
----------------------

Number of atoms                             ...    137
Number of basis functions                   ...   2448
Number of shells                            ...   1004
Maximum angular momentum                    ...      3
Integral batch strategy                     ... SHARK/LIBINT Hybrid
RI-J (if used) integral strategy            ... SPLIT-RIJ (Revised 2003 algorithm where possible)
Printlevel                                  ...      1
Contraction scheme used                     ... SEGMENTED contraction
Prescreening option                         ... SCHWARTZ
   Thresh                                   ... 2.500e-11
   Tcut                                     ... 2.500e-12
   Tpresel                                  ... 2.500e-12 
Coulomb Range Separation                    ... NOT USED
Exchange Range Separation                   ... NOT USED
Multipole approximations                    ... NOT USED
Finite Nucleus Model                        ... NOT USED
CABS basis                                  ... NOT available
Auxiliary Coulomb fitting basis             ... AVAILABLE
   # of basis functions in Aux-J            ...   3984
   # of shells in Aux-J                     ...   1338
   Maximum angular momentum in Aux-J        ...      4
Auxiliary J/K fitting basis                 ... NOT available
Auxiliary Correlation fitting basis         ... NOT available
Auxiliary 'external' fitting basis          ... NOT available

Checking pre-screening integrals            ... done (  0.0 sec) Dimension = 1004
   => SHARK Basis and OBASIS are compatible. Storing Pre-screening
Shell pair information
Shell pair cut-off parameter TPreSel        ...   2.5e-12
Total number of shell pairs                 ...    504510
Shell pairs after pre-screening             ...    146480
Total number of primitive shell pairs       ...   1511112
Primitive shell pairs kept                  ...    279455
          la=0 lb=0:  40911 shell pairs
          la=1 lb=0:  44353 shell pairs
          la=1 lb=1:  12180 shell pairs
          la=2 lb=0:  19510 shell pairs
          la=2 lb=1:  10927 shell pairs
          la=2 lb=2:   2499 shell pairs
          la=3 lb=0:   8664 shell pairs
          la=3 lb=1:   4889 shell pairs
          la=3 lb=2:   2077 shell pairs
          la=3 lb=3:    470 shell pairs

Checking whether 4 symmetric matrices of dimension 2448 fit in memory
:Max Core in MB      =   2200.00
 MB in use           =    175.73
 MB left             =   2024.27
 MB needed           =     91.48
 Data fit in memory  = YES
Calculating RI/J V-Matrix + Cholesky decomp.... done (  1.9 sec)
Calculating Nuclear repulsion               ... done (  0.0 sec) ENN=   8806.212563571489 Eh

Diagonalization of the overlap matrix:
Smallest eigenvalue                        ... 3.523e-06
Time for diagonalization                   ...    2.803 sec
Threshold for overlap eigenvalues          ... 1.000e-07
Number of eigenvalues below threshold      ... 0
Time for construction of square roots      ...    3.210 sec
Total time needed                          ...    6.087 sec

-------------------
DFT GRID GENERATION
-------------------

General Integration Accuracy     IntAcc      ... 4.959
Radial Grid Type                 RadialGrid  ... OptM3 with GC (2021)
Angular Grid (max. ang.)         AngularGrid ... 6 (Lebedev-590)
Angular grid pruning method      GridPruning ... 4 (adaptive)
Weight generation scheme         WeightScheme... mBecke (2022)
Basis function cutoff            BFCut       ... 1.0000e-11
Integration weight cutoff        WCut        ... 1.0000e-14
Partially contracted basis set               ... off
Rotationally invariant grid construction     ... off
Angular grids for H and He will be reduced by one unit

Total number of grid points                  ...  1524069
Total number of batches                      ...    23877
Average number of points per batch           ...       63
Average number of grid points per atom       ...    11125

--------------------
COSX GRID GENERATION
--------------------

GRIDX 1
-------
General Integration Accuracy     IntAcc      ... 4.020
Radial Grid Type                 RadialGrid  ... OptM3 with GC (2021)
Angular Grid (max. ang.)         AngularGrid ... 2 (Lebedev-110)
Angular grid pruning method      GridPruning ... 4 (adaptive)
Weight generation scheme         WeightScheme... mBecke (2022)
Basis function cutoff            BFCut       ... 1.0000e-11
Integration weight cutoff        WCut        ... 1.0000e-14
Partially contracted basis set               ... on
Rotationally invariant grid construction     ... off
Angular grids for H and He will be reduced by one unit

Total number of grid points                  ...   164449
Total number of batches                      ...     1364
Average number of points per batch           ...      120
Average number of grid points per atom       ...     1200
UseSFitting                                  ... on

GRIDX 2
-------
General Integration Accuracy     IntAcc      ... 4.338
Radial Grid Type                 RadialGrid  ... OptM3 with GC (2021)
Angular Grid (max. ang.)         AngularGrid ... 3 (Lebedev-194)
Angular grid pruning method      GridPruning ... 4 (adaptive)
Weight generation scheme         WeightScheme... mBecke (2022)
Basis function cutoff            BFCut       ... 1.0000e-11
Integration weight cutoff        WCut        ... 1.0000e-14
Partially contracted basis set               ... on
Rotationally invariant grid construction     ... off
Angular grids for H and He will be reduced by one unit

Total number of grid points                  ...   357572
Total number of batches                      ...     2863
Average number of points per batch           ...      124
Average number of grid points per atom       ...     2610
UseSFitting                                  ... on

GRIDX 3
-------
General Integration Accuracy     IntAcc      ... 4.871
Radial Grid Type                 RadialGrid  ... OptM3 with GC (2021)
Angular Grid (max. ang.)         AngularGrid ... 4 (Lebedev-302)
Angular grid pruning method      GridPruning ... 4 (adaptive)
Weight generation scheme         WeightScheme... mBecke (2022)
Basis function cutoff            BFCut       ... 1.0000e-11
Integration weight cutoff        WCut        ... 1.0000e-14
Partially contracted basis set               ... on
Rotationally invariant grid construction     ... off
Angular grids for H and He will be reduced by one unit

Total number of grid points                  ...   678711
Total number of batches                      ...     5378
Average number of points per batch           ...      126
Average number of grid points per atom       ...     4954
UseSFitting                                  ... on
Grids setup in  69.9 sec
Initializing property integral containers    ... done (  0.0 sec)

SHARK setup successfully completed in  82.1 seconds

Maximum memory used throughout the entire STARTUP-calculation: 524.3 MB


           ************************************************************
           *        Program running with 4 parallel MPI-processes     *
           *              working on a common directory               *
           ************************************************************
-------------------------------------------------------------------------------
                                 ORCA GUESS
                   Start orbitals & Density for SCF / CASSCF
-------------------------------------------------------------------------------

------------
SCF SETTINGS
------------
Hamiltonian:
 Density Functional     Method          .... DFT(GTOs)
 Exchange Functional    Exchange        .... PBE
   PBE kappa parameter   XKappa         ....  0.804000
   PBE mue parameter    XMuePBE         ....  0.219520
 Correlation Functional Correlation     .... PBE
   PBE beta parameter  CBetaPBE         ....  0.066725
 LDA part of GGA corr.  LDAOpt          .... PW91-LDA
 Gradients option       PostSCFGGA      .... off
 Hybrid DFT is turned on
   Fraction HF Exchange ScalHFX         ....  0.250000
   Scaling of DF-GGA-X  ScalDFX         ....  0.750000
   Scaling of DF-GGA-C  ScalDFC         ....  1.000000
   Scaling of DF-LDA-C  ScalLDAC        ....  1.000000
   Perturbative correction              ....  0.000000
   NL short-range parameter             ....  6.900000
 RI-approximation to the Coulomb term is turned on
   Number of AuxJ basis functions       .... 3984
   RIJ-COSX (HFX calculated with COS-X)).... on


General Settings:
 Integral files         IntName         .... tddft
 Hartree-Fock type      HFTyp           .... RHF
 Total Charge           Charge          ....    0
 Multiplicity           Mult            ....    1
 Number of Electrons    NEL             ....  482
 Basis Dimension        Dim             .... 2448
 Nuclear Repulsion      ENuc            ....   8806.2125635715 Eh

Convergence Acceleration:
 AO-DIIS                CNVDIIS         .... on
   Start iteration      DIISMaxIt       ....    12
   Startup error        DIISStart       ....  0.200000
   # of expansion vecs  DIISMaxEq       ....     5
   Bias factor          DIISBfac        ....   1.050
   Max. coefficient     DIISMaxC        ....  10.000
 MO-DIIS                CNVKDIIS        .... off
 Trust-Rad. Augm. Hess. CNVTRAH         .... auto
   Auto Start mean grad. ratio tolernc. ....  1.125000
   Auto Start start iteration           ....    50
   Auto Start num. interpolation iter.  ....    10
   Max. Number of Micro iterations      ....    24
   Max. Number of Macro iterations      .... Maxiter - #DIIS iter
   Number of Davidson start vectors     ....     2
   Converg. threshold    (grad. norm)   ....   1.000e-05
   Grad. Scal. Fac. for Micro threshold ....   0.100
   Minimum threshold for Micro iter.    ....   1.000e-02
   NR start threshold (gradient norm)   ....   1.000e-04
   Initial trust radius                 ....   0.400
   Minimum AH scaling param. (alpha)    ....   1.000
   Maximum AH scaling param. (alpha)    .... 1000.000
   Quad. conv. algorithm                .... NR
   White noise on init. David. guess    .... on
   Maximum white noise                  ....   0.010
   Pseudo random numbers                .... off
   Inactive MOs                         .... canonical
   Orbital update algorithm             .... Taylor
   Preconditioner                       .... Diag
   Full preconditioner red. dimension   ....   250
 SOSCF                 CNVSOSCF           .... on
   Start iteration     SOSCFMaxIt         ....   150
   Startup grad/error  SOSCFStart         ....  0.003300
   Hessian update      SOSCFHessUp        .... L-BFGS
   Autom. constraints  SOSCFAutoConstrain .... off
 Level Shifting         CNVShift        .... on
   Level shift para.    LevelShift      ....    0.2500
   Turn off err/grad.   ShiftErr        ....    0.0010
 Zerner damping         CNVZerner       .... off
 Static damping         CNVDamp         .... on
   Fraction old density DampFac         ....    0.7000
   Max. Damping (<1)    DampMax         ....    0.9800
   Min. Damping (>=0)   DampMin         ....    0.0000
   Turn off err/grad.   DampErr         ....    0.1000

SCF Procedure:
 Maximum # iterations   MaxIter         ....   125
 SCF integral mode      SCFMode         .... Direct
   Integral package                     .... SHARK and LIBINT hybrid scheme
 Reset frequency        DirectResetFreq ....    20
 Integral Threshold     Thresh          ....  2.500e-11 Eh
 Primitive CutOff       TCut            ....  2.500e-12 Eh

Convergence Tolerance:
 Convergence Check Mode ConvCheckMode   .... Total+1el-Energy
 Convergence forced     ConvForced      .... 1
 Energy Change          TolE            ....  1.000e-08 Eh
 1-El. energy change                    ....  1.000e-05 Eh
 Orbital Gradient       TolG            ....  1.000e-05
 Orbital Rotation angle TolX            ....  1.000e-05
 DIIS Error             TolErr          ....  5.000e-07

------------------------------
INITIAL GUESS: MODEL POTENTIAL
------------------------------
Loading Hartree-Fock densities                     ... done
Calculating cut-offs                               ... done
Initializing the effective Hamiltonian             ... done
Setting up the integral package (SHARK)            ... done
Starting the Coulomb interaction                   ... done (  17.3 sec)
Making the grid                                    ... done (   3.2 sec)
Mapping shells                                     ... done
Starting the XC term evaluation                    ... done (   3.0 sec)
  promolecular density results
     # of electrons  =    481.975676764
     EX              =   -385.790702513
     EC              =    -16.191639786
     EX+EC           =   -401.982342299
Transforming the Hamiltonian                       ... done (   1.9 sec)
Diagonalizing the Hamiltonian                      ... done (   2.7 sec)
Back transforming the eigenvectors                 ... done (   1.3 sec)
Now organizing SCF variables                       ... done
                      ------------------
                      INITIAL GUESS DONE (  30.3 sec)
                      ------------------
             **** ENERGY FILE WAS UPDATED (tddft.en.tmp) ****
Finished Guess after  37.7 sec
Maximum memory used throughout the entire GUESS-calculation: 332.6 MB


           ************************************************************
           *        Program running with 4 parallel MPI-processes     *
           *              working on a common directory               *
           ************************************************************

-------------------------------------------------------------------------------------------
                                      ORCA LEAN-SCF
                              memory conserving SCF solver
-------------------------------------------------------------------------------------------

--------------------
CPCM SOLVATION MODEL
--------------------
CPCM parameters:
  Epsilon                                         ...       8.9990
  Refrac                                          ...       1.4242
  Rsolv                                           ...       1.3000
  Surface type                                    ... GAUSSIAN VDW
  Discretization scheme                           ... Constant charge density
    Threshold for H atoms                         ...       5.0000 (charges/Ang^2)
    Threshold for non-H atoms                     ...       5.0000 (charges/Ang^2)
  Epsilon function type                           ...         CPCM
Solvent:                                          ... DICHLOROMETHANE
Radii:
  Scheme                                          ... Element-dependent radii
  Radius for Mg used is    3.9231 Bohr (=   2.0760 Ang.)
  Radius for C  used is    3.8550 Bohr (=   2.0400 Ang.)
  Radius for N  used is    3.5149 Bohr (=   1.8600 Ang.)
  Radius for O  used is    3.4469 Bohr (=   1.8240 Ang.)
  Radius for H  used is    2.4944 Bohr (=   1.3200 Ang.)
Calculating surface                               ...        done! (  0.1s)
Cavity surface points                             ...        10901
Cavity Volume                                     ...    7471.3652
Cavity Surface-area                               ...    3694.6092
Calculating surface distance matrix               ...        done! (  2.6s)
Performing Cholesky decomposition & store         ...        done! ( 23.0s)
Overall time for CPCM initialization              ...                25.6s

----------------------------------------D-I-I-S--------------------------------------------
Iteration    Energy (Eh)           Delta-E    RMSDP     MaxDP     DIISErr   Damp  Time(sec)
-------------------------------------------------------------------------------------------
               ***  Starting incremental Fock matrix formation  ***
    1    -2930.6011230654585233     0.00e+00  1.61e-03  2.05e-01  2.79e-01  0.700 617.1
Warning: op=0 Small HOMO/LUMO gap (   0.094) - skipping pre-diagonalization
         Will do a full diagonalization
    2    -2931.3815797078023024    -7.80e-01  1.54e-03  2.35e-01  1.18e-01  0.700 276.4
                               ***Turning on AO-DIIS***
    3    -2931.7167344425288320    -3.35e-01  6.11e-04  7.35e-02  4.07e-02  0.700 285.1
    4    -2931.9117141330880258    -1.95e-01  9.67e-04  7.34e-02  2.62e-02  0.000 273.9
    5    -2932.3318790308367170    -4.20e-01  3.26e-04  5.14e-02  5.44e-03  0.000 289.1
                              *** Initializing SOSCF ***
---------------------------------------S-O-S-C-F--------------------------------------
Iteration    Energy (Eh)           Delta-E    RMSDP     MaxDP     MaxGrad    Time(sec)
--------------------------------------------------------------------------------------
    6    -2932.3337366667637980    -1.86e-03  1.03e-04  1.27e-02  2.21e-03   274.0
               *** Restarting incremental Fock matrix formation ***
    7    -2932.3338699984415143    -1.33e-04  8.44e-05  9.45e-03  2.94e-04   729.5
    8    -2932.3338776204873284    -7.62e-06  2.60e-05  1.64e-03  3.56e-04   464.8
    9    -2932.3338963549376786    -1.87e-05  2.25e-05  2.07e-03  7.20e-05   402.2
   10    -2932.3338969319920579    -5.77e-07  7.34e-06  8.03e-04  4.07e-05   376.5
   11    -2932.3338975635524548    -6.32e-07  9.97e-06  1.19e-03  2.51e-05   326.3
   12    -2932.3338976164814085    -5.29e-08  5.38e-06  7.35e-04  1.72e-05   315.3
   13    -2932.3338975631104404     5.34e-08  9.06e-06  1.31e-03  3.06e-06   305.7
   14    -2932.3338975450442376     1.81e-08  6.60e-06  7.41e-04  3.24e-06   284.6
   15    -2932.3338976094073587    -6.44e-08  1.06e-05  1.50e-03  9.13e-07   242.5
                  *** Gradient check signals convergence ***

               *****************************************************
               *                     SUCCESS                       *
               *           SCF CONVERGED AFTER  15 CYCLES          *
               *****************************************************

Recomputing exchange energy using gridx3       ... done ( 1138.172 sec)
Old exchange energy                            :    -98.754522409 Eh
New exchange energy                            :    -98.754509381 Eh
Exchange energy change after final integration :      0.000013027 Eh
Total energy after final integration           :  -2932.333884618 Eh
             **** ENERGY FILE WAS UPDATED (tddft.en.tmp) ****

----------------
TOTAL SCF ENERGY
----------------

Total Energy       :      -2932.33388461791810 Eh          -79792.86159 eV

Components:
Nuclear Repulsion  :       8806.21256357148923 Eh          239629.22637 eV
Electronic Energy  :     -11738.50598770960642 Eh         -319420.98697 eV
One Electron Energy:     -21531.73213518717603 Eh         -585908.21840 eV
Two Electron Energy:       9793.22614747756961 Eh          266487.23142 eV
CPCM Dielectric    :         -0.04047350723497 Eh              -1.10134 eV

Virial components:
Potential Energy   :      -5850.32476381934066 Eh         -159195.43016 eV
Kinetic Energy     :       2917.99087920142301 Eh           79402.56857 eV
Virial Ratio       :          2.00491537020171

DFT components:
N(Alpha)           :      241.000001454954 electrons
N(Beta)            :      241.000001454954 electrons
N(Total)           :      482.000002909907 electrons
E(X)               :     -295.226668769917 Eh       
E(C)               :      -16.165433710260 Eh       
E(XC)              :     -311.392102480177 Eh       

CPCM Solvation Model Properties:
Surface-charge          :         -0.07362771269071
Corrected charge        :         -0.00000000000000
Outlying charge corr.   :          0.00014020578565 Eh               0.00382 eV
Free-energy (cav+disp)  :  This term is not implemented in the current solvation scheme

---------------
SCF CONVERGENCE
---------------

  Last Energy change         ...    6.4363e-08  Tolerance :   1.0000e-08
  Last MAX-Density change    ...    1.5037e-03  Tolerance :   1.0000e-07
  Last RMS-Density change    ...    1.0587e-05  Tolerance :   5.0000e-09
  Last DIIS Error            ...    2.2086e-03  Tolerance :   5.0000e-07
  Last Orbital Gradient      ...    9.1297e-07  Tolerance :   1.0000e-05
  Last Orbital Rotation      ...    8.8381e-06  Tolerance :   1.0000e-05


----------------
ORBITAL ENERGIES
----------------

  NO   OCC          E(Eh)            E(eV) 
   0   2.0000     -46.870575     -1275.4132 
   1   2.0000     -19.261212      -524.1242 
   2   2.0000     -19.253975      -523.9273 
   3   2.0000     -19.203427      -522.5518 
   4   2.0000     -19.202685      -522.5316 
   5   2.0000     -19.198396      -522.4149 
   6   2.0000     -14.397840      -391.7851 
   7   2.0000     -14.375889      -391.1878 
   8   2.0000     -14.374609      -391.1530 
   9   2.0000     -14.372132      -391.0856 
  10   2.0000     -10.359746      -281.9030 
  11   2.0000     -10.353583      -281.7353 
  12   2.0000     -10.327057      -281.0135 
  13   2.0000     -10.275912      -279.6218 
  14   2.0000     -10.273315      -279.5511 
  15   2.0000     -10.272501      -279.5290 
  16   2.0000     -10.269052      -279.4351 
  17   2.0000     -10.266220      -279.3581 
  18   2.0000     -10.262557      -279.2584 
  19   2.0000     -10.260745      -279.2091 
  20   2.0000     -10.257206      -279.1128 
  21   2.0000     -10.256901      -279.1045 
  22   2.0000     -10.255892      -279.0770 
  23   2.0000     -10.255825      -279.0752 
  24   2.0000     -10.254161      -279.0299 
  25   2.0000     -10.238650      -278.6078 
  26   2.0000     -10.237866      -278.5865 
  27   2.0000     -10.237518      -278.5770 
  28   2.0000     -10.237193      -278.5682 
  29   2.0000     -10.237137      -278.5667 
  30   2.0000     -10.236651      -278.5534 
  31   2.0000     -10.235754      -278.5290 
  32   2.0000     -10.234226      -278.4874 
  33   2.0000     -10.233804      -278.4760 
  34   2.0000     -10.233179      -278.4589 
  35   2.0000     -10.227305      -278.2991 
  36   2.0000     -10.227073      -278.2928 
  37   2.0000     -10.226279      -278.2712 
  38   2.0000     -10.224582      -278.2250 
  39   2.0000     -10.223202      -278.1875 
  40   2.0000     -10.222044      -278.1560 
  41   2.0000     -10.220585      -278.1162 
  42   2.0000     -10.219494      -278.0866 
  43   2.0000     -10.217447      -278.0309 
  44   2.0000     -10.217370      -278.0288 
  45   2.0000     -10.216909      -278.0162 
  46   2.0000     -10.215937      -277.9898 
  47   2.0000     -10.215668      -277.9825 
  48   2.0000     -10.215524      -277.9785 
  49   2.0000     -10.214836      -277.9598 
  50   2.0000     -10.212923      -277.9078 
  51   2.0000     -10.211915      -277.8803 
  52   2.0000     -10.211630      -277.8726 
  53   2.0000     -10.207889      -277.7708 
  54   2.0000     -10.207400      -277.7575 
  55   2.0000     -10.205403      -277.7031 
  56   2.0000     -10.205069      -277.6941 
  57   2.0000     -10.205009      -277.6924 
  58   2.0000     -10.204833      -277.6876 
  59   2.0000     -10.204733      -277.6849 
  60   2.0000     -10.204609      -277.6815 
  61   2.0000     -10.199451      -277.5412 
  62   2.0000     -10.199055      -277.5304 
  63   2.0000     -10.198952      -277.5276 
  64   2.0000     -10.198221      -277.5077 
  65   2.0000      -3.094000       -84.1920 
  66   2.0000      -1.820671       -49.5430 
  67   2.0000      -1.815515       -49.4027 
  68   2.0000      -1.815014       -49.3891 
  69   2.0000      -1.145816       -31.1792 
  70   2.0000      -1.138482       -30.9797 
  71   2.0000      -1.083251       -29.4768 
  72   2.0000      -1.057436       -28.7743 
  73   2.0000      -1.051937       -28.6247 
  74   2.0000      -0.999667       -27.2023 
  75   2.0000      -0.990118       -26.9425 
  76   2.0000      -0.986408       -26.8415 
  77   2.0000      -0.976901       -26.5828 
  78   2.0000      -0.877754       -23.8849 
  79   2.0000      -0.854913       -23.2634 
  80   2.0000      -0.845862       -23.0171 
  81   2.0000      -0.843946       -22.9649 
  82   2.0000      -0.840028       -22.8583 
  83   2.0000      -0.837172       -22.7806 
  84   2.0000      -0.835008       -22.7217 
  85   2.0000      -0.827953       -22.5298 
  86   2.0000      -0.825353       -22.4590 
  87   2.0000      -0.822771       -22.3887 
  88   2.0000      -0.820618       -22.3302 
  89   2.0000      -0.805458       -21.9176 
  90   2.0000      -0.795678       -21.6515 
  91   2.0000      -0.787595       -21.4315 
  92   2.0000      -0.784529       -21.3481 
  93   2.0000      -0.774720       -21.0812 
  94   2.0000      -0.772185       -21.0122 
  95   2.0000      -0.764898       -20.8139 
  96   2.0000      -0.759054       -20.6549 
  97   2.0000      -0.753977       -20.5168 
  98   2.0000      -0.741237       -20.1701 
  99   2.0000      -0.730211       -19.8700 
 100   2.0000      -0.725556       -19.7434 
 101   2.0000      -0.718852       -19.5610 
 102   2.0000      -0.711693       -19.3661 
 103   2.0000      -0.703454       -19.1419 
 104   2.0000      -0.699637       -19.0381 
 105   2.0000      -0.697073       -18.9683 
 106   2.0000      -0.692586       -18.8462 
 107   2.0000      -0.686770       -18.6880 
 108   2.0000      -0.679302       -18.4847 
 109   2.0000      -0.674053       -18.3419 
 110   2.0000      -0.665744       -18.1158 
 111   2.0000      -0.649746       -17.6805 
 112   2.0000      -0.642884       -17.4938 
 113   2.0000      -0.636223       -17.3125 
 114   2.0000      -0.632219       -17.2035 
 115   2.0000      -0.621895       -16.9226 
 116   2.0000      -0.607410       -16.5285 
 117   2.0000      -0.603997       -16.4356 
 118   2.0000      -0.598956       -16.2984 
 119   2.0000      -0.593582       -16.1522 
 120   2.0000      -0.586179       -15.9507 
 121   2.0000      -0.581340       -15.8191 
 122   2.0000      -0.576790       -15.6953 
 123   2.0000      -0.572929       -15.5902 
 124   2.0000      -0.568806       -15.4780 
 125   2.0000      -0.561658       -15.2835 
 126   2.0000      -0.554412       -15.0863 
 127   2.0000      -0.553277       -15.0554 
 128   2.0000      -0.547806       -14.9065 
 129   2.0000      -0.542947       -14.7743 
 130   2.0000      -0.539590       -14.6830 
 131   2.0000      -0.535692       -14.5769 
 132   2.0000      -0.532255       -14.4834 
 133   2.0000      -0.529412       -14.4060 
 134   2.0000      -0.517489       -14.0816 
 135   2.0000      -0.514905       -14.0113 
 136   2.0000      -0.510057       -13.8793 
 137   2.0000      -0.506451       -13.7812 
 138   2.0000      -0.501962       -13.6591 
 139   2.0000      -0.500059       -13.6073 
 140   2.0000      -0.495343       -13.4790 
 141   2.0000      -0.490341       -13.3429 
 142   2.0000      -0.489021       -13.3069 
 143   2.0000      -0.487609       -13.2685 
 144   2.0000      -0.483676       -13.1615 
 145   2.0000      -0.477055       -12.9813 
 146   2.0000      -0.476241       -12.9592 
 147   2.0000      -0.469481       -12.7752 
 148   2.0000      -0.468613       -12.7516 
 149   2.0000      -0.467436       -12.7196 
 150   2.0000      -0.464262       -12.6332 
 151   2.0000      -0.458595       -12.4790 
 152   2.0000      -0.457042       -12.4367 
 153   2.0000      -0.456439       -12.4203 
 154   2.0000      -0.453389       -12.3373 
 155   2.0000      -0.452068       -12.3014 
 156   2.0000      -0.451651       -12.2900 
 157   2.0000      -0.448219       -12.1966 
 158   2.0000      -0.447946       -12.1892 
 159   2.0000      -0.446732       -12.1562 
 160   2.0000      -0.445419       -12.1205 
 161   2.0000      -0.442530       -12.0418 
 162   2.0000      -0.441054       -12.0017 
 163   2.0000      -0.435970       -11.8633 
 164   2.0000      -0.433356       -11.7922 
 165   2.0000      -0.431572       -11.7437 
 166   2.0000      -0.430893       -11.7252 
 167   2.0000      -0.428181       -11.6514 
 168   2.0000      -0.422293       -11.4912 
 169   2.0000      -0.420010       -11.4290 
 170   2.0000      -0.417669       -11.3654 
 171   2.0000      -0.415879       -11.3166 
 172   2.0000      -0.414505       -11.2793 
 173   2.0000      -0.411679       -11.2024 
 174   2.0000      -0.411090       -11.1863 
 175   2.0000      -0.409725       -11.1492 
 176   2.0000      -0.409027       -11.1302 
 177   2.0000      -0.406996       -11.0749 
 178   2.0000      -0.406756       -11.0684 
 179   2.0000      -0.405382       -11.0310 
 180   2.0000      -0.403760       -10.9869 
 181   2.0000      -0.401756       -10.9323 
 182   2.0000      -0.400930       -10.9099 
 183   2.0000      -0.399799       -10.8791 
 184   2.0000      -0.396013       -10.7761 
 185   2.0000      -0.391826       -10.6621 
 186   2.0000      -0.389660       -10.6032 
 187   2.0000      -0.388644       -10.5755 
 188   2.0000      -0.387797       -10.5525 
 189   2.0000      -0.386140       -10.5074 
 190   2.0000      -0.385028       -10.4771 
 191   2.0000      -0.382150       -10.3988 
 192   2.0000      -0.380816       -10.3625 
 193   2.0000      -0.378581       -10.3017 
 194   2.0000      -0.378022       -10.2865 
 195   2.0000      -0.377195       -10.2640 
 196   2.0000      -0.375532       -10.2187 
 197   2.0000      -0.373554       -10.1649 
 198   2.0000      -0.370102       -10.0710 
 199   2.0000      -0.369202       -10.0465 
 200   2.0000      -0.367274        -9.9940 
 201   2.0000      -0.366067        -9.9612 
 202   2.0000      -0.361031        -9.8242 
 203   2.0000      -0.360066        -9.7979 
 204   2.0000      -0.357960        -9.7406 
 205   2.0000      -0.357388        -9.7250 
 206   2.0000      -0.350891        -9.5482 
 207   2.0000      -0.350664        -9.5420 
 208   2.0000      -0.349827        -9.5193 
 209   2.0000      -0.348720        -9.4892 
 210   2.0000      -0.345909        -9.4127 
 211   2.0000      -0.340639        -9.2692 
 212   2.0000      -0.337741        -9.1904 
 213   2.0000      -0.337579        -9.1860 
 214   2.0000      -0.333605        -9.0778 
 215   2.0000      -0.328777        -8.9465 
 216   2.0000      -0.327840        -8.9210 
 217   2.0000      -0.327457        -8.9106 
 218   2.0000      -0.325569        -8.8592 
 219   2.0000      -0.323547        -8.8042 
 220   2.0000      -0.323017        -8.7898 
 221   2.0000      -0.322116        -8.7652 
 222   2.0000      -0.320205        -8.7132 
 223   2.0000      -0.318906        -8.6779 
 224   2.0000      -0.318840        -8.6761 
 225   2.0000      -0.317611        -8.6426 
 226   2.0000      -0.316840        -8.6216 
 227   2.0000      -0.311742        -8.4829 
 228   2.0000      -0.306773        -8.3477 
 229   2.0000      -0.301689        -8.2094 
 230   2.0000      -0.294769        -8.0211 
 231   2.0000      -0.292798        -7.9674 
 232   2.0000      -0.289443        -7.8761 
 233   2.0000      -0.277784        -7.5589 
 234   2.0000      -0.273714        -7.4481 
 235   2.0000      -0.265670        -7.2292 
 236   2.0000      -0.258722        -7.0402 
 237   2.0000      -0.246489        -6.7073 
 238   2.0000      -0.240414        -6.5420 
 239   2.0000      -0.209798        -5.7089 
 240   2.0000      -0.197064        -5.3624 
 241   0.0000      -0.102886        -2.7997 
 242   0.0000      -0.072037        -1.9602 
 243   0.0000      -0.039005        -1.0614 
 244   0.0000      -0.012391        -0.3372 
 245   0.0000       0.000733         0.0199 
 246   0.0000       0.008163         0.2221 
 247   0.0000       0.009638         0.2623 
 248   0.0000       0.013531         0.3682 
 249   0.0000       0.017878         0.4865 
 250   0.0000       0.026425         0.7191 
 251   0.0000       0.040985         1.1153 
*Only the first 10 virtual orbitals were printed.

                    ********************************
                    * MULLIKEN POPULATION ANALYSIS *
                    ********************************

-----------------------
MULLIKEN ATOMIC CHARGES
-----------------------
   0 Mg:    0.718895
   1 C :   -0.259342
   2 C :   -0.592563
   3 C :   -0.502523
   4 C :   -0.484592
   5 N :   -0.332260
   6 C :    0.238092
   7 C :    0.046646
   8 C :    0.096136
   9 C :    0.187143
  10 C :   -0.454495
  11 C :   -0.342625
  12 C :   -0.198159
  13 C :    0.309189
  14 O :   -0.399357
  15 O :   -0.231331
  16 N :   -0.317763
  17 C :    0.345526
  18 C :   -0.050454
  19 C :    0.020863
  20 C :    0.321126
  21 C :   -0.450881
  22 C :   -0.246331
  23 C :   -0.317544
  24 N :   -0.318316
  25 C :    0.278895
  26 C :   -0.072133
  27 C :   -0.032084
  28 C :    0.331315
  29 C :   -0.436338
  30 C :   -0.263101
  31 C :   -0.398064
  32 N :   -0.337969
  33 C :    0.291600
  34 C :   -0.152191
  35 C :    0.006895
  36 C :    0.203244
  37 C :   -0.450875
  38 C :    0.071891
  39 O :   -0.349089
  40 C :    0.127643
  41 C :    0.257217
  42 O :   -0.382994
  43 O :   -0.234091
  44 C :   -0.261763
  45 C :   -0.076927
  46 C :   -0.220990
  47 C :    0.047504
  48 C :   -0.408567
  49 C :   -0.183775
  50 C :   -0.282630
  51 C :   -0.208653
  52 C :    0.050767
  53 C :   -0.455033
  54 C :   -0.213366
  55 C :   -0.253473
  56 C :   -0.213698
  57 C :    0.057187
  58 C :   -0.456010
  59 C :   -0.213421
  60 C :   -0.250494
  61 C :   -0.224751
  62 C :    0.028781
  63 C :   -0.431688
  64 C :   -0.397454
  65 H :    0.149797
  66 H :    0.157165
  67 H :    0.166627
  68 H :    0.120775
  69 H :    0.105498
  70 H :    0.141211
  71 H :    0.140995
  72 H :    0.142025
  73 H :    0.134466
  74 H :    0.133850
  75 H :    0.144380
  76 H :    0.148927
  77 H :    0.150872
  78 H :    0.162226
  79 H :    0.162992
  80 H :    0.145842
  81 H :    0.156395
  82 H :    0.166712
  83 H :    0.153171
  84 H :    0.147745
  85 H :    0.150788
  86 H :    0.126413
  87 H :    0.130021
  88 H :    0.134242
  89 H :    0.132336
  90 H :    0.133608
  91 H :    0.157353
  92 H :    0.157446
  93 H :    0.159187
  94 H :    0.125872
  95 H :    0.150870
  96 H :    0.153699
  97 H :    0.160463
  98 H :    0.138633
  99 H :    0.125887
 100 H :    0.135010
 101 H :    0.141880
 102 H :    0.154978
 103 H :    0.141998
 104 H :    0.121519
 105 H :    0.118241
 106 H :    0.116297
 107 H :    0.114715
 108 H :    0.104765
 109 H :    0.103570
 110 H :    0.067842
 111 H :    0.137539
 112 H :    0.138222
 113 H :    0.118385
 114 H :    0.104138
 115 H :    0.099928
 116 H :    0.114797
 117 H :    0.097768
 118 H :    0.103719
 119 H :    0.099156
 120 H :    0.066495
 121 H :    0.117892
 122 H :    0.137304
 123 H :    0.138203
 124 H :    0.102733
 125 H :    0.100625
 126 H :    0.105489
 127 H :    0.107767
 128 H :    0.101609
 129 H :    0.103489
 130 H :    0.073630
 131 H :    0.118655
 132 H :    0.130773
 133 H :    0.137588
 134 H :    0.128459
 135 H :    0.131596
 136 H :    0.118337
Sum of atomic charges:   -0.0000000

--------------------------------
MULLIKEN REDUCED ORBITAL CHARGES
--------------------------------
  0 Mgs       :     4.552808  s :     4.552808
      pz      :     2.139501  p :     6.452718
      px      :     2.157757
      py      :     2.155461
      dz2     :     0.049294  d :     0.275578
      dxz     :     0.024243
      dyz     :     0.080934
      dx2y2   :     0.055064
      dxy     :     0.066043

  1 C s       :     3.449738  s :     3.449738
      pz      :     0.830572  p :     2.679504
      px      :     0.898436
      py      :     0.950496
      dz2     :     0.024436  d :     0.120020
      dxz     :     0.026571
      dyz     :     0.016793
      dx2y2   :     0.028625
      dxy     :     0.023595
      f0      :     0.001059  f :     0.010081
      f+1     :     0.001438
      f-1     :     0.001437
      f+2     :     0.002273
      f-2     :     0.001398
      f+3     :     0.001246
      f-3     :     0.001230

  2 C s       :     3.385717  s :     3.385717
      pz      :     1.052138  p :     3.129293
      px      :     1.007215
      py      :     1.069939
      dz2     :     0.009785  d :     0.070312
      dxz     :     0.019230
      dyz     :     0.009415
      dx2y2   :     0.019944
      dxy     :     0.011937
      f0      :     0.000716  f :     0.007242
      f+1     :     0.000428
      f-1     :     0.001297
      f+2     :     0.000716
      f-2     :     0.001685
      f+3     :     0.001380
      f-3     :     0.001019

  3 C s       :     3.363210  s :     3.363210
      pz      :     1.020687  p :     3.058171
      px      :     0.996756
      py      :     1.040728
      dz2     :     0.021020  d :     0.074027
      dxz     :     0.015928
      dyz     :     0.006919
      dx2y2   :     0.012298
      dxy     :     0.017863
      f0      :     0.000772  f :     0.007115
      f+1     :     0.001439
      f-1     :     0.000637
      f+2     :     0.001306
      f-2     :     0.001231
      f+3     :     0.000953
      f-3     :     0.000777

  4 C s       :     3.396118  s :     3.396118
      pz      :     0.992078  p :     3.000854
      px      :     1.049271
      py      :     0.959504
      dz2     :     0.010386  d :     0.080488
      dxz     :     0.021747
      dyz     :     0.010221
      dx2y2   :     0.023999
      dxy     :     0.014135
      f0      :     0.000779  f :     0.007132
      f+1     :     0.000355
      f-1     :     0.001250
      f+2     :     0.000715
      f-2     :     0.001659
      f+3     :     0.001492
      f-3     :     0.000881

  5 N s       :     3.646551  s :     3.646551
      pz      :     1.153544  p :     3.619297
      px      :     1.300157
      py      :     1.165596
      dz2     :     0.014950  d :     0.062805
      dxz     :     0.011585
      dyz     :     0.011579
      dx2y2   :     0.012069
      dxy     :     0.012621
      f0      :     0.000420  f :     0.003607
      f+1     :     0.000429
      f-1     :     0.000638
      f+2     :     0.000657
      f-2     :     0.000695
      f+3     :     0.000365
      f-3     :     0.000402

  6 C s       :     3.181456  s :     3.181456
      pz      :     0.781326  p :     2.402549
      px      :     0.815654
      py      :     0.805570
      dz2     :     0.040860  d :     0.163978
      dxz     :     0.026192
      dyz     :     0.019464
      dx2y2   :     0.039368
      dxy     :     0.038094
      f0      :     0.001275  f :     0.013924
      f+1     :     0.001526
      f-1     :     0.002310
      f+2     :     0.002992
      f-2     :     0.001915
      f+3     :     0.001855
      f-3     :     0.002050

  7 C s       :     3.029495  s :     3.029495
      pz      :     0.927500  p :     2.789128
      px      :     0.919939
      py      :     0.941688
      dz2     :     0.032244  d :     0.126842
      dxz     :     0.026241
      dyz     :     0.021610
      dx2y2   :     0.027892
      dxy     :     0.018855
      f0      :     0.001199  f :     0.007890
      f+1     :     0.001428
      f-1     :     0.000696
      f+2     :     0.001423
      f-2     :     0.001297
      f+3     :     0.000743
      f-3     :     0.001104

  8 C s       :     2.983126  s :     2.983126
      pz      :     0.939830  p :     2.779324
      px      :     0.927261
      py      :     0.912233
      dz2     :     0.036128  d :     0.133403
      dxz     :     0.023640
      dyz     :     0.026774
      dx2y2   :     0.018061
      dxy     :     0.028799
      f0      :     0.001550  f :     0.008012
      f+1     :     0.001041
      f-1     :     0.001433
      f+2     :     0.000779
      f-2     :     0.001473
      f+3     :     0.000650
      f-3     :     0.001087

  9 C s       :     3.148754  s :     3.148754
      pz      :     0.781028  p :     2.485280
      px      :     0.833842
      py      :     0.870411
      dz2     :     0.044249  d :     0.164739
      dxz     :     0.026509
      dyz     :     0.023390
      dx2y2   :     0.034033
      dxy     :     0.036558
      f0      :     0.001852  f :     0.014084
      f+1     :     0.001660
      f-1     :     0.002375
      f+2     :     0.002033
      f-2     :     0.002871
      f+3     :     0.002066
      f-3     :     0.001227

 10 C s       :     3.283417  s :     3.283417
      pz      :     0.985534  p :     3.108364
      px      :     1.083180
      py      :     1.039651
      dz2     :     0.018072  d :     0.059273
      dxz     :     0.007808
      dyz     :     0.013221
      dx2y2   :     0.003374
      dxy     :     0.016798
      f0      :     0.000625  f :     0.003441
      f+1     :     0.000328
      f-1     :     0.001113
      f+2     :     0.000270
      f-2     :     0.000446
      f+3     :     0.000094
      f-3     :     0.000565

 11 C s       :     3.242409  s :     3.242409
      pz      :     1.009771  p :     2.996232
      px      :     0.936657
      py      :     1.049804
      dz2     :     0.022510  d :     0.098324
      dxz     :     0.020952
      dyz     :     0.013079
      dx2y2   :     0.025676
      dxy     :     0.016107
      f0      :     0.000467  f :     0.005659
      f+1     :     0.001228
      f-1     :     0.000485
      f+2     :     0.001010
      f-2     :     0.000755
      f+3     :     0.000784
      f-3     :     0.000930

 12 C s       :     3.108667  s :     3.108667
      pz      :     0.999756  p :     3.000863
      px      :     0.942881
      py      :     1.058226
      dz2     :     0.015097  d :     0.083308
      dxz     :     0.024194
      dyz     :     0.008727
      dx2y2   :     0.021086
      dxy     :     0.014203
      f0      :     0.000536  f :     0.005321
      f+1     :     0.001245
      f-1     :     0.000454
      f+2     :     0.000938
      f-2     :     0.000588
      f+3     :     0.000737
      f-3     :     0.000822

 13 C s       :     3.112753  s :     3.112753
      pz      :     0.795074  p :     2.284604
      px      :     0.757674
      py      :     0.731856
      dz2     :     0.054150  d :     0.268805
      dxz     :     0.100269
      dyz     :     0.056053
      dx2y2   :     0.019776
      dxy     :     0.038556
      f0      :     0.004389  f :     0.024649
      f+1     :     0.008213
      f-1     :     0.003604
      f+2     :     0.002322
      f-2     :     0.002206
      f+3     :     0.001500
      f-3     :     0.002414

 14 O s       :     3.807187  s :     3.807187
      pz      :     1.357540  p :     4.559277
      px      :     1.770936
      py      :     1.430802
      dz2     :     0.010854  d :     0.030979
      dxz     :     0.008187
      dyz     :     0.010531
      dx2y2   :     0.000788
      dxy     :     0.000619
      f0      :     0.000593  f :     0.001914
      f+1     :     0.000554
      f-1     :     0.000568
      f+2     :     0.000094
      f-2     :     0.000089
      f+3     :     0.000009
      f-3     :     0.000007

 15 O s       :     3.755598  s :     3.755598
      pz      :     1.553780  p :     4.434626
      px      :     1.177832
      py      :     1.703015
      dz2     :     0.006376  d :     0.039087
      dxz     :     0.015310
      dyz     :     0.004038
      dx2y2   :     0.007126
      dxy     :     0.006236
      f0      :     0.000130  f :     0.002019
      f+1     :     0.000372
      f-1     :     0.000035
      f+2     :     0.000487
      f-2     :     0.000226
      f+3     :     0.000417
      f-3     :     0.000354

 16 N s       :     3.623476  s :     3.623476
      pz      :     1.283680  p :     3.629880
      px      :     1.113833
      py      :     1.232366
      dz2     :     0.009520  d :     0.060772
      dxz     :     0.011864
      dyz     :     0.010511
      dx2y2   :     0.015269
      dxy     :     0.013609
      f0      :     0.000385  f :     0.003635
      f+1     :     0.000640
      f-1     :     0.000276
      f+2     :     0.000413
      f-2     :     0.000730
      f+3     :     0.000517
      f-3     :     0.000674

 17 C s       :     3.080401  s :     3.080401
      pz      :     0.818214  p :     2.380784
      px      :     0.737668
      py      :     0.824903
      dz2     :     0.036875  d :     0.178703
      dxz     :     0.029922
      dyz     :     0.032196
      dx2y2   :     0.042804
      dxy     :     0.036907
      f0      :     0.001406  f :     0.014586
      f+1     :     0.002471
      f-1     :     0.001241
      f+2     :     0.001485
      f-2     :     0.003324
      f+3     :     0.002182
      f-3     :     0.002478

 18 C s       :     3.284763  s :     3.284763
      pz      :     0.851786  p :     2.602636
      px      :     0.856885
      py      :     0.893964
      dz2     :     0.030599  d :     0.153124
      dxz     :     0.031873
      dyz     :     0.023737
      dx2y2   :     0.039915
      dxy     :     0.026998
      f0      :     0.001013  f :     0.009931
      f+1     :     0.001283
      f-1     :     0.001289
      f+2     :     0.001533
      f-2     :     0.001974
      f+3     :     0.001994
      f-3     :     0.000845

 19 C s       :     3.278094  s :     3.278094
      pz      :     0.912294  p :     2.543071
      px      :     0.871385
      py      :     0.759393
      dz2     :     0.025562  d :     0.147800
      dxz     :     0.028523
      dyz     :     0.023459
      dx2y2   :     0.033315
      dxy     :     0.036939
      f0      :     0.001040  f :     0.010172
      f+1     :     0.001099
      f-1     :     0.001507
      f+2     :     0.001578
      f-2     :     0.001650
      f+3     :     0.001904
      f-3     :     0.001394

 20 C s       :     3.082959  s :     3.082959
      pz      :     0.850516  p :     2.406770
      px      :     0.793132
      py      :     0.763122
      dz2     :     0.031599  d :     0.174771
      dxz     :     0.030092
      dyz     :     0.033028
      dx2y2   :     0.046377
      dxy     :     0.033674
      f0      :     0.001507  f :     0.014374
      f+1     :     0.002317
      f-1     :     0.001119
      f+2     :     0.001593
      f-2     :     0.002576
      f+3     :     0.001978
      f-3     :     0.003286

 21 C s       :     3.331350  s :     3.331350
      pz      :     0.992331  p :     3.059195
      px      :     0.995388
      py      :     1.071475
      dz2     :     0.020613  d :     0.056988
      dxz     :     0.005950
      dyz     :     0.007524
      dx2y2   :     0.014946
      dxy     :     0.007955
      f0      :     0.000398  f :     0.003349
      f+1     :     0.000703
      f-1     :     0.000509
      f+2     :     0.000556
      f-2     :     0.000332
      f+3     :     0.000168
      f-3     :     0.000683

 22 C s       :     3.287164  s :     3.287164
      pz      :     0.956065  p :     2.861327
      px      :     1.011921
      py      :     0.893342
      dz2     :     0.018252  d :     0.090851
      dxz     :     0.022600
      dyz     :     0.025800
      dx2y2   :     0.012444
      dxy     :     0.011756
      f0      :     0.001355  f :     0.006989
      f+1     :     0.001003
      f-1     :     0.001040
      f+2     :     0.000866
      f-2     :     0.001343
      f+3     :     0.000564
      f-3     :     0.000818

 23 C s       :     3.244939  s :     3.244939
      pz      :     0.965060  p :     3.015044
      px      :     1.015847
      py      :     1.034137
      dz2     :     0.011591  d :     0.052765
      dxz     :     0.015970
      dyz     :     0.014583
      dx2y2   :     0.005191
      dxy     :     0.005430
      f0      :     0.001157  f :     0.004796
      f+1     :     0.000954
      f-1     :     0.000577
      f+2     :     0.000495
      f-2     :     0.001014
      f+3     :     0.000465
      f-3     :     0.000135

 24 N s       :     3.627893  s :     3.627893
      pz      :     1.198002  p :     3.624464
      px      :     1.256196
      py      :     1.170266
      dz2     :     0.014073  d :     0.062320
      dxz     :     0.010666
      dyz     :     0.011020
      dx2y2   :     0.012866
      dxy     :     0.013695
      f0      :     0.000371  f :     0.003638
      f+1     :     0.000499
      f-1     :     0.000577
      f+2     :     0.000636
      f-2     :     0.000663
      f+3     :     0.000423
      f-3     :     0.000468

 25 C s       :     3.083917  s :     3.083917
      pz      :     0.835055  p :     2.448796
      px      :     0.817677
      py      :     0.796064
      dz2     :     0.038342  d :     0.173881
      dxz     :     0.028597
      dyz     :     0.024468
      dx2y2   :     0.040674
      dxy     :     0.041801
      f0      :     0.001087  f :     0.014511
      f+1     :     0.001842
      f-1     :     0.002466
      f+2     :     0.002927
      f-2     :     0.001989
      f+3     :     0.001808
      f-3     :     0.002392

 26 C s       :     3.290222  s :     3.290222
      pz      :     0.934571  p :     2.617951
      px      :     0.882991
      py      :     0.800389
      dz2     :     0.030383  d :     0.154006
      dxz     :     0.025304
      dyz     :     0.023435
      dx2y2   :     0.042255
      dxy     :     0.032629
      f0      :     0.000932  f :     0.009953
      f+1     :     0.001329
      f-1     :     0.001370
      f+2     :     0.001265
      f-2     :     0.001765
      f+3     :     0.001280
      f-3     :     0.002012

 27 C s       :     3.298529  s :     3.298529
      pz      :     0.860608  p :     2.573252
      px      :     0.778854
      py      :     0.933790
      dz2     :     0.030691  d :     0.150270
      dxz     :     0.030654
      dyz     :     0.019862
      dx2y2   :     0.033274
      dxy     :     0.035789
      f0      :     0.001250  f :     0.010033
      f+1     :     0.001419
      f-1     :     0.001140
      f+2     :     0.001075
      f-2     :     0.002243
      f+3     :     0.001482
      f-3     :     0.001423

 28 C s       :     3.092824  s :     3.092824
      pz      :     0.835596  p :     2.392686
      px      :     0.771241
      py      :     0.785849
      dz2     :     0.038553  d :     0.168817
      dxz     :     0.028322
      dyz     :     0.025163
      dx2y2   :     0.040029
      dxy     :     0.036750
      f0      :     0.001705  f :     0.014358
      f+1     :     0.001688
      f-1     :     0.002111
      f+2     :     0.001978
      f-2     :     0.003024
      f+3     :     0.002308
      f-3     :     0.001543

 29 C s       :     3.320217  s :     3.320217
      pz      :     1.072334  p :     3.056132
      px      :     1.024644
      py      :     0.959153
      dz2     :     0.012386  d :     0.056683
      dxz     :     0.007870
      dyz     :     0.009447
      dx2y2   :     0.018423
      dxy     :     0.008557
      f0      :     0.000928  f :     0.003306
      f+1     :     0.000201
      f-1     :     0.000219
      f+2     :     0.000183
      f-2     :     0.000322
      f+3     :     0.000829
      f-3     :     0.000623

 30 C s       :     3.268946  s :     3.268946
      pz      :     0.929140  p :     2.889846
      px      :     0.937802
      py      :     1.022904
      dz2     :     0.027081  d :     0.098844
      dxz     :     0.026526
      dyz     :     0.015548
      dx2y2   :     0.015692
      dxy     :     0.013997
      f0      :     0.001029  f :     0.005465
      f+1     :     0.001154
      f-1     :     0.000606
      f+2     :     0.000876
      f-2     :     0.000942
      f+3     :     0.000265
      f-3     :     0.000592

 31 C s       :     3.247697  s :     3.247697
      pz      :     0.964454  p :     3.088292
      px      :     1.072417
      py      :     1.051421
      dz2     :     0.011859  d :     0.058665
      dxz     :     0.021890
      dyz     :     0.008236
      dx2y2   :     0.012112
      dxy     :     0.004568
      f0      :     0.000814  f :     0.003409
      f+1     :     0.000508
      f-1     :     0.000543
      f+2     :     0.000721
      f-2     :     0.000388
      f+3     :     0.000131
      f-3     :     0.000306

 32 N s       :     3.655845  s :     3.655845
      pz      :     1.278709  p :     3.617266
      px      :     1.097443
      py      :     1.241114
      dz2     :     0.009091  d :     0.061203
      dxz     :     0.012538
      dyz     :     0.010302
      dx2y2   :     0.015689
      dxy     :     0.013581
      f0      :     0.000384  f :     0.003656
      f+1     :     0.000622
      f-1     :     0.000296
      f+2     :     0.000427
      f-2     :     0.000722
      f+3     :     0.000503
      f-3     :     0.000702

 33 C s       :     3.087455  s :     3.087455
      pz      :     0.855370  p :     2.440643
      px      :     0.767096
      py      :     0.818177
      dz2     :     0.031906  d :     0.166098
      dxz     :     0.028602
      dyz     :     0.029048
      dx2y2   :     0.038665
      dxy     :     0.037877
      f0      :     0.001318  f :     0.014204
      f+1     :     0.002281
      f-1     :     0.001264
      f+2     :     0.001513
      f-2     :     0.003171
      f+3     :     0.002444
      f-3     :     0.002213

 34 C s       :     3.437829  s :     3.437829
      pz      :     0.841975  p :     2.555906
      px      :     0.839575
      py      :     0.874356
      dz2     :     0.023991  d :     0.148588
      dxz     :     0.032777
      dyz     :     0.026325
      dx2y2   :     0.037427
      dxy     :     0.028068
      f0      :     0.000861  f :     0.009869
      f+1     :     0.001392
      f-1     :     0.001446
      f+2     :     0.001762
      f-2     :     0.001669
      f+3     :     0.001697
      f-3     :     0.001042

 35 C s       :     3.236458  s :     3.236458
      pz      :     0.968152  p :     2.609629
      px      :     0.800035
      py      :     0.841441
      dz2     :     0.025371  d :     0.136238
      dxz     :     0.025887
      dyz     :     0.016841
      dx2y2   :     0.027063
      dxy     :     0.041076
      f0      :     0.001098  f :     0.010781
      f+1     :     0.001363
      f-1     :     0.001183
      f+2     :     0.001321
      f-2     :     0.001795
      f+3     :     0.002043
      f-3     :     0.001977

 36 C s       :     3.183857  s :     3.183857
      pz      :     0.826429  p :     2.412129
      px      :     0.854141
      py      :     0.731559
      dz2     :     0.030746  d :     0.184813
      dxz     :     0.031552
      dyz     :     0.036106
      dx2y2   :     0.052636
      dxy     :     0.033772
      f0      :     0.001662  f :     0.015957
      f+1     :     0.002151
      f-1     :     0.001433
      f+2     :     0.001594
      f-2     :     0.002812
      f+3     :     0.002538
      f-3     :     0.003766

 37 C s       :     3.338679  s :     3.338679
      pz      :     0.983392  p :     3.054977
      px      :     1.010042
      py      :     1.061543
      dz2     :     0.012046  d :     0.053935
      dxz     :     0.008907
      dyz     :     0.013294
      dx2y2   :     0.011240
      dxy     :     0.008448
      f0      :     0.000261  f :     0.003283
      f+1     :     0.000336
      f-1     :     0.000295
      f+2     :     0.001082
      f-2     :     0.000863
      f+3     :     0.000365
      f-3     :     0.000081

 38 C s       :     3.166943  s :     3.166943
      pz      :     0.803708  p :     2.542571
      px      :     0.931347
      py      :     0.807516
      dz2     :     0.038358  d :     0.200689
      dxz     :     0.040927
      dyz     :     0.030788
      dx2y2   :     0.043642
      dxy     :     0.046974
      f0      :     0.001624  f :     0.017905
      f+1     :     0.001010
      f-1     :     0.003748
      f+2     :     0.002118
      f-2     :     0.004170
      f+3     :     0.002973
      f-3     :     0.002263

 39 O s       :     3.798567  s :     3.798567
      pz      :     1.413413  p :     4.517739
      px      :     1.697774
      py      :     1.406551
      dz2     :     0.007475  d :     0.030991
      dxz     :     0.003401
      dyz     :     0.008223
      dx2y2   :     0.005833
      dxy     :     0.006059
      f0      :     0.000156  f :     0.001792
      f+1     :     0.000035
      f-1     :     0.000508
      f+2     :     0.000309
      f-2     :     0.000305
      f+3     :     0.000260
      f-3     :     0.000220

 40 C s       :     2.900459  s :     2.900459
      pz      :     0.937241  p :     2.850432
      px      :     1.009779
      py      :     0.903412
      dz2     :     0.018651  d :     0.114580
      dxz     :     0.025394
      dyz     :     0.023909
      dx2y2   :     0.026868
      dxy     :     0.019758
      f0      :     0.000508  f :     0.006886
      f+1     :     0.000516
      f-1     :     0.001330
      f+2     :     0.001750
      f-2     :     0.001162
      f+3     :     0.000896
      f-3     :     0.000722

 41 C s       :     3.127771  s :     3.127771
      pz      :     0.765330  p :     2.321167
      px      :     0.738034
      py      :     0.817803
      dz2     :     0.058579  d :     0.268987
      dxz     :     0.052270
      dyz     :     0.078992
      dx2y2   :     0.048137
      dxy     :     0.031009
      f0      :     0.003992  f :     0.024858
      f+1     :     0.003705
      f-1     :     0.005497
      f+2     :     0.003451
      f-2     :     0.003772
      f+3     :     0.002323
      f-3     :     0.002118

 42 O s       :     3.800299  s :     3.800299
      pz      :     1.361224  p :     4.549984
      px      :     1.501272
      py      :     1.687488
      dz2     :     0.010731  d :     0.030802
      dxz     :     0.008681
      dyz     :     0.007112
      dx2y2   :     0.001994
      dxy     :     0.002283
      f0      :     0.000592  f :     0.001909
      f+1     :     0.000405
      f-1     :     0.000341
      f+2     :     0.000230
      f-2     :     0.000245
      f+3     :     0.000042
      f-3     :     0.000055

 43 O s       :     3.751962  s :     3.751962
      pz      :     1.603156  p :     4.439247
      px      :     1.549449
      py      :     1.286642
      dz2     :     0.005886  d :     0.040793
      dxz     :     0.006561
      dyz     :     0.011874
      dx2y2   :     0.008035
      dxy     :     0.008437
      f0      :     0.000176  f :     0.002089
      f+1     :     0.000165
      f-1     :     0.000254
      f+2     :     0.000327
      f-2     :     0.000381
      f+3     :     0.000404
      f-3     :     0.000383

 44 C s       :     3.262110  s :     3.262110
      pz      :     1.015456  p :     2.904259
      px      :     1.107033
      py      :     0.781770
      dz2     :     0.018807  d :     0.088003
      dxz     :     0.013619
      dyz     :     0.018403
      dx2y2   :     0.013708
      dxy     :     0.023466
      f0      :     0.000566  f :     0.007391
      f+1     :     0.000460
      f-1     :     0.001635
      f+2     :     0.000961
      f-2     :     0.001334
      f+3     :     0.000947
      f-3     :     0.001489

 45 C s       :     3.186194  s :     3.186194
      pz      :     0.882058  p :     2.754708
      px      :     0.786379
      py      :     1.086271
      dz2     :     0.020513  d :     0.126653
      dxz     :     0.028151
      dyz     :     0.030597
      dx2y2   :     0.023681
      dxy     :     0.023711
      f0      :     0.000685  f :     0.009372
      f+1     :     0.002462
      f-1     :     0.000114
      f+2     :     0.002385
      f-2     :     0.001820
      f+3     :     0.000672
      f-3     :     0.001234

 46 C s       :     3.169744  s :     3.169744
      pz      :     1.004593  p :     2.950589
      px      :     0.977117
      py      :     0.968879
      dz2     :     0.006347  d :     0.093545
      dxz     :     0.017933
      dyz     :     0.023163
      dx2y2   :     0.029463
      dxy     :     0.016639
      f0      :     0.000790  f :     0.007111
      f+1     :     0.000960
      f-1     :     0.000260
      f+2     :     0.000943
      f-2     :     0.001650
      f+3     :     0.000983
      f-3     :     0.001525

 47 C s       :     3.183845  s :     3.183845
      pz      :     0.861143  p :     2.609382
      px      :     0.896722
      py      :     0.851517
      dz2     :     0.016737  d :     0.149773
      dxz     :     0.026391
      dyz     :     0.032900
      dx2y2   :     0.045245
      dxy     :     0.028500
      f0      :     0.000925  f :     0.009495
      f+1     :     0.000985
      f-1     :     0.001031
      f+2     :     0.001034
      f-2     :     0.002073
      f+3     :     0.001573
      f-3     :     0.001875

 48 C s       :     3.259494  s :     3.259494
      pz      :     1.042933  p :     3.090794
      px      :     1.088161
      py      :     0.959700
      dz2     :     0.007183  d :     0.055081
      dxz     :     0.011356
      dyz     :     0.014280
      dx2y2   :     0.011020
      dxy     :     0.011242
      f0      :     0.000023  f :     0.003198
      f+1     :     0.000203
      f-1     :     0.000597
      f+2     :     0.001230
      f-2     :     0.000378
      f+3     :     0.000531
      f-3     :     0.000237

 49 C s       :     3.156639  s :     3.156639
      pz      :     0.961545  p :     2.926657
      px      :     0.907454
      py      :     1.057657
      dz2     :     0.014079  d :     0.095048
      dxz     :     0.018544
      dyz     :     0.025706
      dx2y2   :     0.020482
      dxy     :     0.016237
      f0      :     0.000190  f :     0.005432
      f+1     :     0.001360
      f-1     :     0.000024
      f+2     :     0.001712
      f-2     :     0.000948
      f+3     :     0.000404
      f-3     :     0.000795

 50 C s       :     3.210386  s :     3.210386
      pz      :     0.978229  p :     2.968766
      px      :     0.949554
      py      :     1.040983
      dz2     :     0.014065  d :     0.097857
      dxz     :     0.019658
      dyz     :     0.028893
      dx2y2   :     0.019510
      dxy     :     0.015731
      f0      :     0.000201  f :     0.005621
      f+1     :     0.001463
      f-1     :     0.000035
      f+2     :     0.001698
      f-2     :     0.001072
      f+3     :     0.000413
      f-3     :     0.000738

 51 C s       :     3.159341  s :     3.159341
      pz      :     0.981515  p :     2.948215
      px      :     0.929521
      py      :     1.037179
      dz2     :     0.013382  d :     0.095541
      dxz     :     0.018143
      dyz     :     0.028546
      dx2y2   :     0.019959
      dxy     :     0.015512
      f0      :     0.000212  f :     0.005556
      f+1     :     0.001368
      f-1     :     0.000062
      f+2     :     0.001687
      f-2     :     0.000989
      f+3     :     0.000423
      f-3     :     0.000815

 52 C s       :     3.063291  s :     3.063291
      pz      :     0.906290  p :     2.734546
      px      :     0.895475
      py      :     0.932781
      dz2     :     0.022891  d :     0.143542
      dxz     :     0.032530
      dyz     :     0.036085
      dx2y2   :     0.029752
      dxy     :     0.022283
      f0      :     0.000530  f :     0.007855
      f+1     :     0.001473
      f-1     :     0.000757
      f+2     :     0.001846
      f-2     :     0.001556
      f+3     :     0.000745
      f-3     :     0.000948

 53 C s       :     3.273627  s :     3.273627
      pz      :     1.038026  p :     3.120721
      px      :     1.084242
      py      :     0.998453
      dz2     :     0.008924  d :     0.057359
      dxz     :     0.016191
      dyz     :     0.009762
      dx2y2   :     0.016346
      dxy     :     0.006136
      f0      :     0.000170  f :     0.003325
      f+1     :     0.000070
      f-1     :     0.000614
      f+2     :     0.001557
      f-2     :     0.000475
      f+3     :     0.000263
      f-3     :     0.000174

 54 C s       :     3.166118  s :     3.166118
      pz      :     0.981504  p :     2.945527
      px      :     0.931080
      py      :     1.032943
      dz2     :     0.012612  d :     0.096162
      dxz     :     0.019840
      dyz     :     0.028310
      dx2y2   :     0.018823
      dxy     :     0.016577
      f0      :     0.000341  f :     0.005559
      f+1     :     0.001264
      f-1     :     0.000091
      f+2     :     0.001601
      f-2     :     0.001001
      f+3     :     0.000492
      f-3     :     0.000768

 55 C s       :     3.172841  s :     3.172841
      pz      :     0.982567  p :     2.977835
      px      :     0.964678
      py      :     1.030590
      dz2     :     0.013669  d :     0.097169
      dxz     :     0.020326
      dyz     :     0.028621
      dx2y2   :     0.017962
      dxy     :     0.016590
      f0      :     0.000389  f :     0.005629
      f+1     :     0.001262
      f-1     :     0.000130
      f+2     :     0.001618
      f-2     :     0.001051
      f+3     :     0.000502
      f-3     :     0.000677

 56 C s       :     3.165603  s :     3.165603
      pz      :     0.980005  p :     2.946398
      px      :     0.938295
      py      :     1.028097
      dz2     :     0.013000  d :     0.096138
      dxz     :     0.019496
      dyz     :     0.029358
      dx2y2   :     0.019111
      dxy     :     0.015174
      f0      :     0.000444  f :     0.005559
      f+1     :     0.001159
      f-1     :     0.000151
      f+2     :     0.001490
      f-2     :     0.001073
      f+3     :     0.000586
      f-3     :     0.000656

 57 C s       :     3.058488  s :     3.058488
      pz      :     0.908364  p :     2.732869
      px      :     0.895159
      py      :     0.929346
      dz2     :     0.022546  d :     0.143601
      dxz     :     0.030738
      dyz     :     0.036676
      dx2y2   :     0.029932
      dxy     :     0.023709
      f0      :     0.000696  f :     0.007855
      f+1     :     0.001225
      f-1     :     0.000920
      f+2     :     0.001795
      f-2     :     0.001316
      f+3     :     0.000841
      f-3     :     0.001062

 58 C s       :     3.273797  s :     3.273797
      pz      :     1.047840  p :     3.121420
      px      :     1.067912
      py      :     1.005667
      dz2     :     0.009222  d :     0.057467
      dxz     :     0.012301
      dyz     :     0.012139
      dx2y2   :     0.016426
      dxy     :     0.007378
      f0      :     0.000096  f :     0.003326
      f+1     :     0.000301
      f-1     :     0.000575
      f+2     :     0.001088
      f-2     :     0.000617
      f+3     :     0.000223
      f-3     :     0.000427

 59 C s       :     3.167041  s :     3.167041
      pz      :     0.979956  p :     2.944776
      px      :     0.947214
      py      :     1.017606
      dz2     :     0.012377  d :     0.096046
      dxz     :     0.021767
      dyz     :     0.027134
      dx2y2   :     0.016686
      dxy     :     0.018081
      f0      :     0.000665  f :     0.005558
      f+1     :     0.000900
      f-1     :     0.000327
      f+2     :     0.001159
      f-2     :     0.001166
      f+3     :     0.000807
      f-3     :     0.000535

 60 C s       :     3.177691  s :     3.177691
      pz      :     0.979137  p :     2.969894
      px      :     0.967268
      py      :     1.023489
      dz2     :     0.013944  d :     0.097273
      dxz     :     0.022316
      dyz     :     0.026818
      dx2y2   :     0.016567
      dxy     :     0.017628
      f0      :     0.000737  f :     0.005635
      f+1     :     0.000820
      f-1     :     0.000461
      f+2     :     0.001176
      f-2     :     0.001140
      f+3     :     0.000800
      f-3     :     0.000502

 61 C s       :     3.176944  s :     3.176944
      pz      :     0.974418  p :     2.946410
      px      :     0.949594
      py      :     1.022397
      dz2     :     0.013763  d :     0.095871
      dxz     :     0.021217
      dyz     :     0.026535
      dx2y2   :     0.014990
      dxy     :     0.019367
      f0      :     0.000752  f :     0.005526
      f+1     :     0.000747
      f-1     :     0.000498
      f+2     :     0.001252
      f-2     :     0.000928
      f+3     :     0.000771
      f-3     :     0.000578

 62 C s       :     3.072408  s :     3.072408
      pz      :     0.901014  p :     2.744161
      px      :     0.914944
      py      :     0.928204
      dz2     :     0.028762  d :     0.146743
      dxz     :     0.030169
      dyz     :     0.033006
      dx2y2   :     0.024288
      dxy     :     0.030517
      f0      :     0.001204  f :     0.007907
      f+1     :     0.000832
      f-1     :     0.001199
      f+2     :     0.001328
      f-2     :     0.001460
      f+3     :     0.001113
      f-3     :     0.000772

 63 C s       :     3.263293  s :     3.263293
      pz      :     1.033654  p :     3.106955
      px      :     1.075976
      py      :     0.997324
      dz2     :     0.015389  d :     0.058075
      dxz     :     0.009415
      dyz     :     0.008061
      dx2y2   :     0.010174
      dxy     :     0.015036
      f0      :     0.000291  f :     0.003366
      f+1     :     0.000280
      f-1     :     0.000781
      f+2     :     0.000539
      f-2     :     0.000691
      f+3     :     0.000482
      f-3     :     0.000301

 64 C s       :     3.251055  s :     3.251055
      pz      :     0.984471  p :     3.084236
      px      :     1.035654
      py      :     1.064111
      dz2     :     0.011041  d :     0.058750
      dxz     :     0.008066
      dyz     :     0.022309
      dx2y2   :     0.011191
      dxy     :     0.006144
      f0      :     0.000670  f :     0.003413
      f+1     :     0.000453
      f-1     :     0.000394
      f+2     :     0.000898
      f-2     :     0.000603
      f+3     :     0.000224
      f-3     :     0.000171

 65 H s       :     0.826745  s :     0.826745
      pz      :     0.009451  p :     0.023458
      px      :     0.009461
      py      :     0.004546

 66 H s       :     0.819281  s :     0.819281
      pz      :     0.005679  p :     0.023553
      px      :     0.006556
      py      :     0.011319

 67 H s       :     0.810415  s :     0.810415
      pz      :     0.008457  p :     0.022959
      px      :     0.010079
      py      :     0.004422

 68 H s       :     0.856679  s :     0.856679
      pz      :     0.004873  p :     0.022547
      px      :     0.004402
      py      :     0.013272

 69 H s       :     0.872066  s :     0.872066
      pz      :     0.004408  p :     0.022435
      px      :     0.011446
      py      :     0.006581

 70 H s       :     0.837586  s :     0.837586
      pz      :     0.004440  p :     0.021203
      px      :     0.008626
      py      :     0.008136

 71 H s       :     0.837572  s :     0.837572
      pz      :     0.010002  p :     0.021433
      px      :     0.004445
      py      :     0.006987

 72 H s       :     0.836759  s :     0.836759
      pz      :     0.004323  p :     0.021216
      px      :     0.010280
      py      :     0.006613

 73 H s       :     0.843190  s :     0.843190
      pz      :     0.011733  p :     0.022343
      px      :     0.004704
      py      :     0.005907

 74 H s       :     0.844769  s :     0.844769
      pz      :     0.004826  p :     0.021381
      px      :     0.004152
      py      :     0.012403

 75 H s       :     0.833349  s :     0.833349
      pz      :     0.011276  p :     0.022271
      px      :     0.005012
      py      :     0.005983

 76 H s       :     0.829115  s :     0.829115
      pz      :     0.004955  p :     0.021958
      px      :     0.004230
      py      :     0.012773

 77 H s       :     0.827269  s :     0.827269
      pz      :     0.004877  p :     0.021858
      px      :     0.011566
      py      :     0.005415

 78 H s       :     0.816125  s :     0.816125
      pz      :     0.004455  p :     0.021650
      px      :     0.004450
      py      :     0.012745

 79 H s       :     0.815638  s :     0.815638
      pz      :     0.011432  p :     0.021370
      px      :     0.004586
      py      :     0.005352

 80 H s       :     0.831848  s :     0.831848
      pz      :     0.007549  p :     0.022310
      px      :     0.008142
      py      :     0.006620

 81 H s       :     0.821406  s :     0.821406
      pz      :     0.004487  p :     0.022199
      px      :     0.006374
      py      :     0.011337

 82 H s       :     0.810951  s :     0.810951
      pz      :     0.008396  p :     0.022337
      px      :     0.007899
      py      :     0.006042

 83 H s       :     0.825523  s :     0.825523
      pz      :     0.005059  p :     0.021306
      px      :     0.005792
      py      :     0.010455

 84 H s       :     0.830157  s :     0.830157
      pz      :     0.006131  p :     0.022097
      px      :     0.011460
      py      :     0.004507

 85 H s       :     0.827940  s :     0.827940
      pz      :     0.012131  p :     0.021273
      px      :     0.004682
      py      :     0.004460

 86 H s       :     0.851803  s :     0.851803
      pz      :     0.004485  p :     0.021784
      px      :     0.005270
      py      :     0.012030

 87 H s       :     0.848056  s :     0.848056
      pz      :     0.005954  p :     0.021924
      px      :     0.010075
      py      :     0.005895

 88 H s       :     0.844546  s :     0.844546
      pz      :     0.007511  p :     0.021212
      px      :     0.009289
      py      :     0.004412

 89 H s       :     0.846517  s :     0.846517
      pz      :     0.004365  p :     0.021147
      px      :     0.004805
      py      :     0.011977

 90 H s       :     0.845184  s :     0.845184
      pz      :     0.006329  p :     0.021208
      px      :     0.009193
      py      :     0.005686

 91 H s       :     0.821262  s :     0.821262
      pz      :     0.008713  p :     0.021385
      px      :     0.004852
      py      :     0.007820

 92 H s       :     0.820843  s :     0.820843
      pz      :     0.006230  p :     0.021711
      px      :     0.005333
      py      :     0.010148

 93 H s       :     0.819389  s :     0.819389
      pz      :     0.005652  p :     0.021423
      px      :     0.010740
      py      :     0.005032

 94 H s       :     0.850850  s :     0.850850
      pz      :     0.008079  p :     0.023278
      px      :     0.010892
      py      :     0.004307

 95 H s       :     0.828642  s :     0.828642
      pz      :     0.011725  p :     0.020488
      px      :     0.005625
      py      :     0.003138

 96 H s       :     0.825787  s :     0.825787
      pz      :     0.004158  p :     0.020514
      px      :     0.010509
      py      :     0.005846

 97 H s       :     0.818749  s :     0.818749
      pz      :     0.006646  p :     0.020788
      px      :     0.008335
      py      :     0.005807

 98 H s       :     0.840331  s :     0.840331
      pz      :     0.008059  p :     0.021037
      px      :     0.003555
      py      :     0.009423

 99 H s       :     0.851911  s :     0.851911
      pz      :     0.007139  p :     0.022202
      px      :     0.003876
      py      :     0.011187

100 H s       :     0.842593  s :     0.842593
      pz      :     0.007395  p :     0.022397
      px      :     0.004532
      py      :     0.010471

101 H s       :     0.836697  s :     0.836697
      pz      :     0.007231  p :     0.021423
      px      :     0.004834
      py      :     0.009357

102 H s       :     0.823307  s :     0.823307
      pz      :     0.009278  p :     0.021715
      px      :     0.007871
      py      :     0.004567

103 H s       :     0.835649  s :     0.835649
      pz      :     0.005751  p :     0.022353
      px      :     0.011624
      py      :     0.004978

104 H s       :     0.857244  s :     0.857244
      pz      :     0.008202  p :     0.021237
      px      :     0.004344
      py      :     0.008692

105 H s       :     0.860261  s :     0.860261
      pz      :     0.007109  p :     0.021499
      px      :     0.004295
      py      :     0.010095

106 H s       :     0.861967  s :     0.861967
      pz      :     0.008426  p :     0.021736
      px      :     0.004434
      py      :     0.008876

107 H s       :     0.863794  s :     0.863794
      pz      :     0.007088  p :     0.021491
      px      :     0.004421
      py      :     0.009982

108 H s       :     0.873863  s :     0.873863
      pz      :     0.008605  p :     0.021372
      px      :     0.004409
      py      :     0.008358

109 H s       :     0.875363  s :     0.875363
      pz      :     0.006767  p :     0.021067
      px      :     0.004295
      py      :     0.010006

110 H s       :     0.910656  s :     0.910656
      pz      :     0.006962  p :     0.021502
      px      :     0.004335
      py      :     0.010205

111 H s       :     0.840645  s :     0.840645
      pz      :     0.008268  p :     0.021816
      px      :     0.009001
      py      :     0.004547

112 H s       :     0.839978  s :     0.839978
      pz      :     0.006900  p :     0.021799
      px      :     0.010404
      py      :     0.004496

113 H s       :     0.860562  s :     0.860562
      pz      :     0.006189  p :     0.021053
      px      :     0.004431
      py      :     0.010433

114 H s       :     0.874528  s :     0.874528
      pz      :     0.008130  p :     0.021334
      px      :     0.004717
      py      :     0.008487

115 H s       :     0.879017  s :     0.879017
      pz      :     0.007081  p :     0.021055
      px      :     0.004296
      py      :     0.009677

116 H s       :     0.862976  s :     0.862976
      pz      :     0.007810  p :     0.022227
      px      :     0.005219
      py      :     0.009198

117 H s       :     0.881128  s :     0.881128
      pz      :     0.007502  p :     0.021104
      px      :     0.004280
      py      :     0.009321

118 H s       :     0.874948  s :     0.874948
      pz      :     0.007829  p :     0.021333
      px      :     0.005109
      py      :     0.008396

119 H s       :     0.879778  s :     0.879778
      pz      :     0.007248  p :     0.021066
      px      :     0.004332
      py      :     0.009487

120 H s       :     0.912005  s :     0.912005
      pz      :     0.007384  p :     0.021501
      px      :     0.004411
      py      :     0.009705

121 H s       :     0.861054  s :     0.861054
      pz      :     0.006573  p :     0.021054
      px      :     0.004545
      py      :     0.009936

122 H s       :     0.840887  s :     0.840887
      pz      :     0.009449  p :     0.021809
      px      :     0.007334
      py      :     0.005026

123 H s       :     0.839996  s :     0.839996
      pz      :     0.005840  p :     0.021800
      px      :     0.011084
      py      :     0.004876

124 H s       :     0.875917  s :     0.875917
      pz      :     0.007313  p :     0.021350
      px      :     0.006157
      py      :     0.007880

125 H s       :     0.878335  s :     0.878335
      pz      :     0.007502  p :     0.021040
      px      :     0.004415
      py      :     0.009123

126 H s       :     0.872888  s :     0.872888
      pz      :     0.006787  p :     0.021623
      px      :     0.006580
      py      :     0.008256

127 H s       :     0.870673  s :     0.870673
      pz      :     0.008107  p :     0.021560
      px      :     0.004560
      py      :     0.008893

128 H s       :     0.877412  s :     0.877412
      pz      :     0.006289  p :     0.020979
      px      :     0.006186
      py      :     0.008504

129 H s       :     0.875254  s :     0.875254
      pz      :     0.008341  p :     0.021257
      px      :     0.004404
      py      :     0.008512

130 H s       :     0.904914  s :     0.904914
      pz      :     0.006186  p :     0.021456
      px      :     0.006118
      py      :     0.009152

131 H s       :     0.860365  s :     0.860365
      pz      :     0.005496  p :     0.020979
      px      :     0.006210
      py      :     0.009274

132 H s       :     0.848006  s :     0.848006
      pz      :     0.004871  p :     0.021221
      px      :     0.011032
      py      :     0.005318

133 H s       :     0.840800  s :     0.840800
      pz      :     0.010761  p :     0.021612
      px      :     0.006116
      py      :     0.004736

134 H s       :     0.850391  s :     0.850391
      pz      :     0.007628  p :     0.021150
      px      :     0.004482
      py      :     0.009041

135 H s       :     0.847186  s :     0.847186
      pz      :     0.004627  p :     0.021218
      px      :     0.011520
      py      :     0.005072

136 H s       :     0.860687  s :     0.860687
      pz      :     0.006576  p :     0.020977
      px      :     0.005646
      py      :     0.008755



                     *******************************
                     * LOEWDIN POPULATION ANALYSIS *
                     *******************************

----------------------
LOEWDIN ATOMIC CHARGES
----------------------
   0 Mg:    0.337213
   1 C :   -0.076271
   2 C :   -0.118585
   3 C :   -0.078686
   4 C :   -0.066452
   5 N :    0.211587
   6 C :   -0.129433
   7 C :   -0.165328
   8 C :   -0.190845
   9 C :   -0.164863
  10 C :   -0.271936
  11 C :   -0.218017
  12 C :   -0.219776
  13 C :   -0.475746
  14 O :    0.076626
  15 O :    0.252751
  16 N :    0.174169
  17 C :   -0.169341
  18 C :   -0.101898
  19 C :   -0.092767
  20 C :   -0.167170
  21 C :   -0.261012
  22 C :   -0.167790
  23 C :   -0.195398
  24 N :    0.179853
  25 C :   -0.179815
  26 C :   -0.124111
  27 C :   -0.098799
  28 C :   -0.175696
  29 C :   -0.263029
  30 C :   -0.248804
  31 C :   -0.305067
  32 N :    0.187875
  33 C :   -0.166975
  34 C :   -0.081037
  35 C :   -0.083468
  36 C :   -0.149540
  37 C :   -0.255030
  38 C :   -0.249573
  39 O :    0.090624
  40 C :   -0.111352
  41 C :   -0.465857
  42 O :    0.091051
  43 O :    0.250150
  44 C :   -0.304924
  45 C :   -0.261977
  46 C :   -0.178170
  47 C :   -0.190723
  48 C :   -0.262086
  49 C :   -0.223996
  50 C :   -0.258924
  51 C :   -0.248346
  52 C :   -0.289329
  53 C :   -0.293352
  54 C :   -0.249725
  55 C :   -0.268865
  56 C :   -0.249903
  57 C :   -0.290022
  58 C :   -0.293972
  59 C :   -0.250089
  60 C :   -0.269414
  61 C :   -0.252834
  62 C :   -0.318286
  63 C :   -0.297721
  64 C :   -0.298755
  65 H :    0.167171
  66 H :    0.167050
  67 H :    0.169419
  68 H :    0.172654
  69 H :    0.167924
  70 H :    0.128144
  71 H :    0.126745
  72 H :    0.131537
  73 H :    0.148351
  74 H :    0.152339
  75 H :    0.156351
  76 H :    0.166420
  77 H :    0.134249
  78 H :    0.138986
  79 H :    0.139354
  80 H :    0.157430
  81 H :    0.128817
  82 H :    0.129321
  83 H :    0.137325
  84 H :    0.133932
  85 H :    0.136118
  86 H :    0.146798
  87 H :    0.146780
  88 H :    0.122183
  89 H :    0.123143
  90 H :    0.122379
  91 H :    0.141539
  92 H :    0.137998
  93 H :    0.142583
  94 H :    0.182296
  95 H :    0.117131
  96 H :    0.118582
  97 H :    0.121099
  98 H :    0.139511
  99 H :    0.135023
 100 H :    0.150535
 101 H :    0.136373
 102 H :    0.136585
 103 H :    0.128493
 104 H :    0.148166
 105 H :    0.146874
 106 H :    0.138510
 107 H :    0.140294
 108 H :    0.141639
 109 H :    0.140588
 110 H :    0.152810
 111 H :    0.121386
 112 H :    0.121633
 113 H :    0.124605
 114 H :    0.140477
 115 H :    0.139898
 116 H :    0.135934
 117 H :    0.138483
 118 H :    0.140319
 119 H :    0.139729
 120 H :    0.152225
 121 H :    0.124485
 122 H :    0.121134
 123 H :    0.121383
 124 H :    0.140776
 125 H :    0.139477
 126 H :    0.137486
 127 H :    0.137783
 128 H :    0.139236
 129 H :    0.140926
 130 H :    0.150479
 131 H :    0.123461
 132 H :    0.122723
 133 H :    0.120913
 134 H :    0.121833
 135 H :    0.121923
 136 H :    0.122726

-------------------------------
LOEWDIN REDUCED ORBITAL CHARGES
-------------------------------
  0 Mgs       :     4.240476  s :     4.240476
      pz      :     2.213262  p :     6.696502
      px      :     2.245585
      py      :     2.237655
      dz2     :     0.131590  d :     0.725809
      dxz     :     0.086682
      dyz     :     0.185033
      dx2y2   :     0.153133
      dxy     :     0.169370

  1 C s       :     2.680847  s :     2.680847
      pz      :     0.952138  p :     2.845973
      px      :     0.966493
      py      :     0.927342
      dz2     :     0.089613  d :     0.493065
      dxz     :     0.103485
      dyz     :     0.087707
      dx2y2   :     0.111321
      dxy     :     0.100938
      f0      :     0.005623  f :     0.056387
      f+1     :     0.007226
      f-1     :     0.007838
      f+2     :     0.012336
      f-2     :     0.006819
      f+3     :     0.008074
      f-3     :     0.008470

  2 C s       :     2.743690  s :     2.743690
      pz      :     0.981431  p :     2.974216
      px      :     0.990032
      py      :     1.002753
      dz2     :     0.047594  d :     0.361081
      dxz     :     0.076730
      dyz     :     0.063201
      dx2y2   :     0.090220
      dxy     :     0.083336
      f0      :     0.004482  f :     0.039597
      f+1     :     0.002690
      f-1     :     0.006272
      f+2     :     0.005015
      f-2     :     0.007047
      f+3     :     0.008214
      f-3     :     0.005876

  3 C s       :     2.745629  s :     2.745629
      pz      :     0.961081  p :     2.923935
      px      :     0.994573
      py      :     0.968281
      dz2     :     0.076907  d :     0.369555
      dxz     :     0.085967
      dyz     :     0.048415
      dx2y2   :     0.070253
      dxy     :     0.088014
      f0      :     0.004723  f :     0.039567
      f+1     :     0.006459
      f-1     :     0.004019
      f+2     :     0.007668
      f-2     :     0.005594
      f+3     :     0.005839
      f-3     :     0.005265

  4 C s       :     2.749555  s :     2.749555
      pz      :     0.937611  p :     2.902081
      px      :     0.982108
      py      :     0.982361
      dz2     :     0.045333  d :     0.374954
      dxz     :     0.081226
      dyz     :     0.062459
      dx2y2   :     0.101673
      dxy     :     0.084263
      f0      :     0.004827  f :     0.039862
      f+1     :     0.002431
      f-1     :     0.006033
      f+2     :     0.004805
      f-2     :     0.007054
      f+3     :     0.008816
      f-3     :     0.005896

  5 N s       :     2.977932  s :     2.977932
      pz      :     1.136209  p :     3.583489
      px      :     1.286060
      py      :     1.161219
      dz2     :     0.045759  d :     0.208661
      dxz     :     0.041555
      dyz     :     0.043717
      dx2y2   :     0.037384
      dxy     :     0.040246
      f0      :     0.002060  f :     0.018330
      f+1     :     0.002732
      f-1     :     0.002454
      f+2     :     0.003210
      f-2     :     0.002764
      f+3     :     0.002753
      f-3     :     0.002356

  6 C s       :     2.699450  s :     2.699450
      pz      :     0.902316  p :     2.730196
      px      :     0.939714
      py      :     0.888165
      dz2     :     0.128887  d :     0.623184
      dxz     :     0.113233
      dyz     :     0.105688
      dx2y2   :     0.135794
      dxy     :     0.139583
      f0      :     0.007150  f :     0.076603
      f+1     :     0.009411
      f-1     :     0.011071
      f+2     :     0.015777
      f-2     :     0.009084
      f+3     :     0.011529
      f-3     :     0.012581

  7 C s       :     2.713022  s :     2.713022
      pz      :     0.969995  p :     2.911656
      px      :     0.960218
      py      :     0.981442
      dz2     :     0.107354  d :     0.487008
      dxz     :     0.111266
      dyz     :     0.083344
      dx2y2   :     0.123912
      dxy     :     0.061131
      f0      :     0.008983  f :     0.053643
      f+1     :     0.009460
      f-1     :     0.005457
      f+2     :     0.006481
      f-2     :     0.009852
      f+3     :     0.005247
      f-3     :     0.008162

  8 C s       :     2.718877  s :     2.718877
      pz      :     0.978390  p :     2.926716
      px      :     0.975484
      py      :     0.972842
      dz2     :     0.127563  d :     0.491456
      dxz     :     0.070123
      dyz     :     0.113652
      dx2y2   :     0.067666
      dxy     :     0.112452
      f0      :     0.009580  f :     0.053795
      f+1     :     0.009254
      f-1     :     0.007007
      f+2     :     0.007161
      f-2     :     0.009155
      f+3     :     0.004257
      f-3     :     0.007383

  9 C s       :     2.708767  s :     2.708767
      pz      :     0.889355  p :     2.741018
      px      :     0.899976
      py      :     0.951686
      dz2     :     0.140358  d :     0.637290
      dxz     :     0.118910
      dyz     :     0.122307
      dx2y2   :     0.124297
      dxy     :     0.131418
      f0      :     0.009895  f :     0.077788
      f+1     :     0.009739
      f-1     :     0.012176
      f+2     :     0.012107
      f-2     :     0.013402
      f+3     :     0.012777
      f-3     :     0.007692

 10 C s       :     2.829167  s :     2.829167
      pz      :     1.027545  p :     3.159605
      px      :     1.074825
      py      :     1.057235
      dz2     :     0.075763  d :     0.259152
      dxz     :     0.028928
      dyz     :     0.068007
      dx2y2   :     0.016006
      dxy     :     0.070447
      f0      :     0.003741  f :     0.024013
      f+1     :     0.004812
      f-1     :     0.004501
      f+2     :     0.004304
      f-2     :     0.002605
      f+3     :     0.000976
      f-3     :     0.003073

 11 C s       :     2.767873  s :     2.767873
      pz      :     1.015160  p :     3.019927
      px      :     0.973600
      py      :     1.031166
      dz2     :     0.085009  d :     0.392182
      dxz     :     0.087099
      dyz     :     0.053785
      dx2y2   :     0.105721
      dxy     :     0.060568
      f0      :     0.003887  f :     0.038036
      f+1     :     0.007379
      f-1     :     0.004222
      f+2     :     0.004635
      f-2     :     0.006409
      f+3     :     0.005045
      f-3     :     0.006458

 12 C s       :     2.773299  s :     2.773299
      pz      :     1.018017  p :     3.047154
      px      :     0.996951
      py      :     1.032186
      dz2     :     0.068242  d :     0.362750
      dxz     :     0.104190
      dyz     :     0.040205
      dx2y2   :     0.095216
      dxy     :     0.054896
      f0      :     0.003868  f :     0.036573
      f+1     :     0.007700
      f-1     :     0.003919
      f+2     :     0.004852
      f-2     :     0.005513
      f+3     :     0.004804
      f-3     :     0.005916

 13 C s       :     2.753818  s :     2.753818
      pz      :     1.005953  p :     2.623892
      px      :     0.896063
      py      :     0.721876
      dz2     :     0.224400  d :     0.944431
      dxz     :     0.350948
      dyz     :     0.162993
      dx2y2   :     0.094512
      dxy     :     0.111578
      f0      :     0.028373  f :     0.153606
      f+1     :     0.051953
      f-1     :     0.021013
      f+2     :     0.016086
      f-2     :     0.013070
      f+3     :     0.010648
      f-3     :     0.012462

 14 O s       :     3.393385  s :     3.393385
      pz      :     1.498840  p :     4.456402
      px      :     1.612749
      py      :     1.344813
      dz2     :     0.030780  d :     0.067375
      dxz     :     0.019845
      dyz     :     0.014428
      dx2y2   :     0.001285
      dxy     :     0.001038
      f0      :     0.002399  f :     0.006211
      f+1     :     0.002010
      f-1     :     0.001255
      f+2     :     0.000259
      f-2     :     0.000264
      f+3     :     0.000013
      f-3     :     0.000011

 15 O s       :     3.262738  s :     3.262738
      pz      :     1.541484  p :     4.372658
      px      :     1.259944
      py      :     1.571231
      dz2     :     0.016552  d :     0.105480
      dxz     :     0.038737
      dyz     :     0.007626
      dx2y2   :     0.025965
      dxy     :     0.016599
      f0      :     0.000602  f :     0.006373
      f+1     :     0.001985
      f-1     :     0.000101
      f+2     :     0.001174
      f-2     :     0.000976
      f+3     :     0.000949
      f-3     :     0.000585

 16 N s       :     2.970551  s :     2.970551
      pz      :     1.255459  p :     3.633024
      px      :     1.136936
      py      :     1.240629
      dz2     :     0.027774  d :     0.203867
      dxz     :     0.044496
      dyz     :     0.030585
      dx2y2   :     0.051523
      dxy     :     0.049488
      f0      :     0.001724  f :     0.018388
      f+1     :     0.002976
      f-1     :     0.001243
      f+2     :     0.002785
      f-2     :     0.003563
      f+3     :     0.002507
      f-3     :     0.003590

 17 C s       :     2.693065  s :     2.693065
      pz      :     0.881243  p :     2.747121
      px      :     0.922376
      py      :     0.943503
      dz2     :     0.121029  d :     0.649283
      dxz     :     0.127892
      dyz     :     0.106772
      dx2y2   :     0.148951
      dxy     :     0.144640
      f0      :     0.008523  f :     0.079871
      f+1     :     0.012899
      f-1     :     0.007057
      f+2     :     0.009106
      f-2     :     0.015871
      f+3     :     0.012324
      f-3     :     0.014091

 18 C s       :     2.703277  s :     2.703277
      pz      :     0.915238  p :     2.826699
      px      :     0.973869
      py      :     0.937592
      dz2     :     0.088117  d :     0.513744
      dxz     :     0.105845
      dyz     :     0.091120
      dx2y2   :     0.125443
      dxy     :     0.103218
      f0      :     0.006805  f :     0.058178
      f+1     :     0.006502
      f-1     :     0.007905
      f+2     :     0.009695
      f-2     :     0.008877
      f+3     :     0.011963
      f-3     :     0.006432

 19 C s       :     2.692882  s :     2.692882
      pz      :     0.908209  p :     2.828607
      px      :     0.971081
      py      :     0.949317
      dz2     :     0.088830  d :     0.513007
      dxz     :     0.090798
      dyz     :     0.093300
      dx2y2   :     0.113398
      dxy     :     0.126681
      f0      :     0.006371  f :     0.058272
      f+1     :     0.006049
      f-1     :     0.009044
      f+2     :     0.009464
      f-2     :     0.006822
      f+3     :     0.011297
      f-3     :     0.009225

 20 C s       :     2.690735  s :     2.690735
      pz      :     0.909374  p :     2.761989
      px      :     0.955597
      py      :     0.897019
      dz2     :     0.106030  d :     0.636289
      dxz     :     0.119666
      dyz     :     0.108187
      dx2y2   :     0.155795
      dxy     :     0.146612
      f0      :     0.008973  f :     0.078156
      f+1     :     0.011827
      f-1     :     0.006382
      f+2     :     0.010339
      f-2     :     0.011126
      f+3     :     0.010625
      f-3     :     0.018884

 21 C s       :     2.812863  s :     2.812863
      pz      :     1.052022  p :     3.169835
      px      :     1.050432
      py      :     1.067381
      dz2     :     0.080199  d :     0.253594
      dxz     :     0.040876
      dyz     :     0.031806
      dx2y2   :     0.067646
      dxy     :     0.033067
      f0      :     0.002710  f :     0.024719
      f+1     :     0.004284
      f-1     :     0.004099
      f+2     :     0.003261
      f-2     :     0.004533
      f+3     :     0.001608
      f-3     :     0.004224

 22 C s       :     2.771535  s :     2.771535
      pz      :     1.060857  p :     2.955870
      px      :     0.923546
      py      :     0.971467
      dz2     :     0.083928  d :     0.398849
      dxz     :     0.089473
      dyz     :     0.118969
      dx2y2   :     0.053302
      dxy     :     0.053176
      f0      :     0.007881  f :     0.041536
      f+1     :     0.006451
      f-1     :     0.008818
      f+2     :     0.005531
      f-2     :     0.005016
      f+3     :     0.003455
      f-3     :     0.004384

 23 C s       :     2.854456  s :     2.854456
      pz      :     1.084264  p :     3.075443
      px      :     0.975814
      py      :     1.015366
      dz2     :     0.060706  d :     0.238378
      dxz     :     0.064731
      dyz     :     0.073679
      dx2y2   :     0.021986
      dxy     :     0.017276
      f0      :     0.006384  f :     0.027121
      f+1     :     0.005633
      f-1     :     0.005689
      f+2     :     0.003123
      f-2     :     0.003571
      f+3     :     0.002114
      f-3     :     0.000607

 24 N s       :     2.977034  s :     2.977034
      pz      :     1.154770  p :     3.618734
      px      :     1.286356
      py      :     1.177608
      dz2     :     0.043326  d :     0.205909
      dxz     :     0.036636
      dyz     :     0.040702
      dx2y2   :     0.040673
      dxy     :     0.044573
      f0      :     0.001964  f :     0.018470
      f+1     :     0.002713
      f-1     :     0.002035
      f+2     :     0.003074
      f-2     :     0.002626
      f+3     :     0.003207
      f-3     :     0.002850

 25 C s       :     2.691449  s :     2.691449
      pz      :     0.913687  p :     2.767858
      px      :     0.946069
      py      :     0.908103
      dz2     :     0.113846  d :     0.640821
      dxz     :     0.113232
      dyz     :     0.122084
      dx2y2   :     0.147381
      dxy     :     0.144277
      f0      :     0.006417  f :     0.079687
      f+1     :     0.010552
      f-1     :     0.011991
      f+2     :     0.016197
      f-2     :     0.008374
      f+3     :     0.011266
      f-3     :     0.014890

 26 C s       :     2.702580  s :     2.702580
      pz      :     0.930769  p :     2.842879
      px      :     0.948271
      py      :     0.963839
      dz2     :     0.090474  d :     0.519901
      dxz     :     0.090207
      dyz     :     0.092013
      dx2y2   :     0.128814
      dxy     :     0.118392
      f0      :     0.005838  f :     0.058752
      f+1     :     0.007260
      f-1     :     0.007143
      f+2     :     0.008634
      f-2     :     0.009173
      f+3     :     0.007725
      f-3     :     0.012980

 27 C s       :     2.701200  s :     2.701200
      pz      :     0.924412  p :     2.821368
      px      :     0.943698
      py      :     0.953258
      dz2     :     0.100254  d :     0.517475
      dxz     :     0.103691
      dyz     :     0.081568
      dx2y2   :     0.110414
      dxy     :     0.121548
      f0      :     0.007194  f :     0.058756
      f+1     :     0.007960
      f-1     :     0.006267
      f+2     :     0.006083
      f-2     :     0.012106
      f+3     :     0.009196
      f-3     :     0.009948

 28 C s       :     2.691062  s :     2.691062
      pz      :     0.900103  p :     2.777648
      px      :     0.922151
      py      :     0.955394
      dz2     :     0.119706  d :     0.629120
      dxz     :     0.120679
      dyz     :     0.113638
      dx2y2   :     0.139682
      dxy     :     0.135415
      f0      :     0.010012  f :     0.077865
      f+1     :     0.009431
      f-1     :     0.009441
      f+2     :     0.010864
      f-2     :     0.014378
      f+3     :     0.014181
      f-3     :     0.009559

 29 C s       :     2.812827  s :     2.812827
      pz      :     1.068456  p :     3.171752
      px      :     1.059108
      py      :     1.044188
      dz2     :     0.058803  d :     0.253838
      dxz     :     0.035871
      dyz     :     0.034753
      dx2y2   :     0.073263
      dxy     :     0.051148
      f0      :     0.004093  f :     0.024612
      f+1     :     0.001134
      f-1     :     0.002392
      f+2     :     0.004237
      f-2     :     0.004002
      f+3     :     0.004880
      f-3     :     0.003875

 30 C s       :     2.763760  s :     2.763760
      pz      :     1.014678  p :     3.053910
      px      :     1.011270
      py      :     1.027962
      dz2     :     0.097788  d :     0.392665
      dxz     :     0.103982
      dyz     :     0.062200
      dx2y2   :     0.071846
      dxy     :     0.056850
      f0      :     0.007490  f :     0.038469
      f+1     :     0.007062
      f-1     :     0.004939
      f+2     :     0.004902
      f-2     :     0.007024
      f+3     :     0.002755
      f-3     :     0.004297

 31 C s       :     2.835264  s :     2.835264
      pz      :     1.036481  p :     3.185019
      px      :     1.076576
      py      :     1.071962
      dz2     :     0.055351  d :     0.260705
      dxz     :     0.089197
      dyz     :     0.042296
      dx2y2   :     0.052336
      dxy     :     0.021525
      f0      :     0.005944  f :     0.024079
      f+1     :     0.002861
      f-1     :     0.004381
      f+2     :     0.003376
      f-2     :     0.003775
      f+3     :     0.001473
      f-3     :     0.002270

 32 N s       :     2.967415  s :     2.967415
      pz      :     1.236665  p :     3.620136
      px      :     1.121833
      py      :     1.261638
      dz2     :     0.027159  d :     0.205446
      dxz     :     0.045553
      dyz     :     0.029770
      dx2y2   :     0.052674
      dxy     :     0.050289
      f0      :     0.001722  f :     0.019127
      f+1     :     0.003058
      f-1     :     0.001277
      f+2     :     0.002494
      f-2     :     0.003775
      f+3     :     0.002842
      f-3     :     0.003960

 33 C s       :     2.693977  s :     2.693977
      pz      :     0.895431  p :     2.781157
      px      :     0.929029
      py      :     0.956697
      dz2     :     0.109177  d :     0.615651
      dxz     :     0.122908
      dyz     :     0.095996
      dx2y2   :     0.141521
      dxy     :     0.146049
      f0      :     0.007602  f :     0.076191
      f+1     :     0.012023
      f-1     :     0.006385
      f+2     :     0.008869
      f-2     :     0.014884
      f+3     :     0.013675
      f-3     :     0.012753

 34 C s       :     2.709577  s :     2.709577
      pz      :     0.896719  p :     2.792608
      px      :     0.965225
      py      :     0.930664
      dz2     :     0.084265  d :     0.520467
      dxz     :     0.109769
      dyz     :     0.093232
      dx2y2   :     0.129598
      dxy     :     0.103603
      f0      :     0.005773  f :     0.058386
      f+1     :     0.007226
      f-1     :     0.008064
      f+2     :     0.011496
      f-2     :     0.007116
      f+3     :     0.011091
      f-3     :     0.007620

 35 C s       :     2.682781  s :     2.682781
      pz      :     0.932316  p :     2.848741
      px      :     0.970689
      py      :     0.945735
      dz2     :     0.085410  d :     0.489604
      dxz     :     0.087833
      dyz     :     0.072653
      dx2y2   :     0.100637
      dxy     :     0.143070
      f0      :     0.006423  f :     0.062342
      f+1     :     0.007280
      f-1     :     0.007393
      f+2     :     0.008632
      f-2     :     0.008300
      f+3     :     0.010975
      f-3     :     0.013339

 36 C s       :     2.662485  s :     2.662485
      pz      :     0.881438  p :     2.712630
      px      :     0.931905
      py      :     0.899286
      dz2     :     0.111112  d :     0.686740
      dxz     :     0.122014
      dyz     :     0.117372
      dx2y2   :     0.177060
      dxy     :     0.159182
      f0      :     0.009795  f :     0.087685
      f+1     :     0.011819
      f-1     :     0.007681
      f+2     :     0.010572
      f-2     :     0.012658
      f+3     :     0.013451
      f-3     :     0.021707

 37 C s       :     2.814265  s :     2.814265
      pz      :     1.051293  p :     3.169200
      px      :     1.051701
      py      :     1.066206
      dz2     :     0.039903  d :     0.247097
      dxz     :     0.052831
      dyz     :     0.066822
      dx2y2   :     0.048634
      dxy     :     0.038907
      f0      :     0.004457  f :     0.024468
      f+1     :     0.003545
      f-1     :     0.002535
      f+2     :     0.004227
      f-2     :     0.003547
      f+3     :     0.003839
      f-3     :     0.002318

 38 C s       :     2.743769  s :     2.743769
      pz      :     0.814901  p :     2.630804
      px      :     0.905905
      py      :     0.909997
      dz2     :     0.123732  d :     0.769962
      dxz     :     0.143688
      dyz     :     0.149535
      dx2y2   :     0.165281
      dxy     :     0.187727
      f0      :     0.010774  f :     0.105039
      f+1     :     0.006386
      f-1     :     0.019104
      f+2     :     0.013498
      f-2     :     0.022897
      f+3     :     0.018787
      f-3     :     0.013594

 39 O s       :     3.395903  s :     3.395903
      pz      :     1.403868  p :     4.438666
      px      :     1.572740
      py      :     1.462059
      dz2     :     0.010669  d :     0.068761
      dxz     :     0.007990
      dyz     :     0.022843
      dx2y2   :     0.013697
      dxy     :     0.013562
      f0      :     0.000519  f :     0.006045
      f+1     :     0.000100
      f-1     :     0.001376
      f+2     :     0.001487
      f-2     :     0.001126
      f+3     :     0.000740
      f-3     :     0.000698

 40 C s       :     2.724338  s :     2.724338
      pz      :     0.973265  p :     2.907916
      px      :     0.976054
      py      :     0.958597
      dz2     :     0.057387  d :     0.433113
      dxz     :     0.103728
      dyz     :     0.101637
      dx2y2   :     0.102088
      dxy     :     0.068274
      f0      :     0.005796  f :     0.045985
      f+1     :     0.004165
      f-1     :     0.008756
      f+2     :     0.007250
      f-2     :     0.006333
      f+3     :     0.007098
      f-3     :     0.006589

 41 C s       :     2.747450  s :     2.747450
      pz      :     0.947768  p :     2.619915
      px      :     0.792545
      py      :     0.879603
      dz2     :     0.208732  d :     0.944765
      dxz     :     0.203649
      dyz     :     0.263739
      dx2y2   :     0.143348
      dxy     :     0.125297
      f0      :     0.024080  f :     0.153727
      f+1     :     0.024676
      f-1     :     0.034490
      f+2     :     0.019510
      f-2     :     0.021723
      f+3     :     0.015606
      f-3     :     0.013641

 42 O s       :     3.391477  s :     3.391477
      pz      :     1.463652  p :     4.443543
      px      :     1.434656
      py      :     1.545236
      dz2     :     0.023234  d :     0.067686
      dxz     :     0.020644
      dyz     :     0.015860
      dx2y2   :     0.003956
      dxy     :     0.003993
      f0      :     0.001468  f :     0.006243
      f+1     :     0.001871
      f-1     :     0.001167
      f+2     :     0.000812
      f-2     :     0.000729
      f+3     :     0.000106
      f-3     :     0.000091

 43 O s       :     3.257450  s :     3.257450
      pz      :     1.557383  p :     4.375162
      px      :     1.495434
      py      :     1.322345
      dz2     :     0.015961  d :     0.110509
      dxz     :     0.014543
      dyz     :     0.028426
      dx2y2   :     0.022741
      dxy     :     0.028838
      f0      :     0.000482  f :     0.006730
      f+1     :     0.000573
      f-1     :     0.001300
      f+2     :     0.001121
      f-2     :     0.001309
      f+3     :     0.001172
      f-3     :     0.000774

 44 C s       :     2.866237  s :     2.866237
      pz      :     1.055800  p :     3.029452
      px      :     1.109178
      py      :     0.864475
      dz2     :     0.069637  d :     0.357054
      dxz     :     0.049182
      dyz     :     0.089171
      dx2y2   :     0.056483
      dxy     :     0.092581
      f0      :     0.004440  f :     0.052180
      f+1     :     0.002279
      f-1     :     0.011482
      f+2     :     0.010606
      f-2     :     0.007358
      f+3     :     0.006298
      f-3     :     0.009717

 45 C s       :     2.796446  s :     2.796446
      pz      :     0.961377  p :     2.906854
      px      :     0.882240
      py      :     1.063237
      dz2     :     0.063933  d :     0.493277
      dxz     :     0.138338
      dyz     :     0.120780
      dx2y2   :     0.101244
      dxy     :     0.068982
      f0      :     0.007908  f :     0.065400
      f+1     :     0.019391
      f-1     :     0.001651
      f+2     :     0.010417
      f-2     :     0.010464
      f+3     :     0.005650
      f-3     :     0.009919

 46 C s       :     2.775865  s :     2.775865
      pz      :     0.958680  p :     2.980724
      px      :     1.004201
      py      :     1.017843
      dz2     :     0.032303  d :     0.381608
      dxz     :     0.072821
      dyz     :     0.076672
      dx2y2   :     0.115830
      dxy     :     0.083982
      f0      :     0.004230  f :     0.039973
      f+1     :     0.005141
      f-1     :     0.002269
      f+2     :     0.004262
      f-2     :     0.007650
      f+3     :     0.006885
      f-3     :     0.009536

 47 C s       :     2.733860  s :     2.733860
      pz      :     0.874602  p :     2.861185
      px      :     0.974489
      py      :     1.012094
      dz2     :     0.067006  d :     0.539590
      dxz     :     0.091579
      dyz     :     0.105986
      dx2y2   :     0.155492
      dxy     :     0.119528
      f0      :     0.005288  f :     0.056088
      f+1     :     0.005490
      f-1     :     0.006969
      f+2     :     0.005048
      f-2     :     0.010788
      f+3     :     0.010906
      f-3     :     0.011600

 48 C s       :     2.816567  s :     2.816567
      pz      :     1.064917  p :     3.169715
      px      :     1.068222
      py      :     1.036576
      dz2     :     0.026812  d :     0.251597
      dxz     :     0.054669
      dyz     :     0.067946
      dx2y2   :     0.062534
      dxy     :     0.039636
      f0      :     0.002646  f :     0.024208
      f+1     :     0.002117
      f-1     :     0.004811
      f+2     :     0.003786
      f-2     :     0.003079
      f+3     :     0.005023
      f-3     :     0.002746

 49 C s       :     2.767706  s :     2.767706
      pz      :     1.012465  p :     3.027080
      px      :     0.990042
      py      :     1.024573
      dz2     :     0.046695  d :     0.391511
      dxz     :     0.089363
      dyz     :     0.105388
      dx2y2   :     0.095817
      dxy     :     0.054248
      f0      :     0.004287  f :     0.037698
      f+1     :     0.009462
      f-1     :     0.001389
      f+2     :     0.005656
      f-2     :     0.005538
      f+3     :     0.003865
      f-3     :     0.007503

 50 C s       :     2.775885  s :     2.775885
      pz      :     1.026932  p :     3.046186
      px      :     0.990018
      py      :     1.029235
      dz2     :     0.049860  d :     0.398635
      dxz     :     0.091441
      dyz     :     0.110361
      dx2y2   :     0.092380
      dxy     :     0.054592
      f0      :     0.004534  f :     0.038218
      f+1     :     0.010113
      f-1     :     0.001452
      f+2     :     0.005492
      f-2     :     0.006041
      f+3     :     0.003668
      f-3     :     0.006918

 51 C s       :     2.774472  s :     2.774472
      pz      :     1.017443  p :     3.034960
      px      :     0.992256
      py      :     1.025261
      dz2     :     0.050792  d :     0.401146
      dxz     :     0.090410
      dyz     :     0.107567
      dx2y2   :     0.098167
      dxy     :     0.054209
      f0      :     0.004232  f :     0.037769
      f+1     :     0.009489
      f-1     :     0.001639
      f+2     :     0.005551
      f-2     :     0.005798
      f+3     :     0.003743
      f-3     :     0.007316

 52 C s       :     2.733630  s :     2.733630
      pz      :     0.997804  p :     2.975654
      px      :     0.981593
      py      :     0.996257
      dz2     :     0.077035  d :     0.527503
      dxz     :     0.123146
      dyz     :     0.131595
      dx2y2   :     0.121803
      dxy     :     0.073924
      f0      :     0.006768  f :     0.052541
      f+1     :     0.010234
      f-1     :     0.005475
      f+2     :     0.006946
      f-2     :     0.009314
      f+3     :     0.005807
      f-3     :     0.007998

 53 C s       :     2.827501  s :     2.827501
      pz      :     1.056930  p :     3.177238
      px      :     1.066665
      py      :     1.053643
      dz2     :     0.031214  d :     0.264361
      dxz     :     0.078962
      dyz     :     0.059789
      dx2y2   :     0.071159
      dxy     :     0.023238
      f0      :     0.004078  f :     0.024252
      f+1     :     0.001541
      f-1     :     0.004800
      f+2     :     0.004380
      f-2     :     0.002880
      f+3     :     0.003822
      f-3     :     0.002752

 54 C s       :     2.774574  s :     2.774574
      pz      :     1.014085  p :     3.035218
      px      :     0.997045
      py      :     1.024087
      dz2     :     0.049615  d :     0.402206
      dxz     :     0.092360
      dyz     :     0.107915
      dx2y2   :     0.094090
      dxy     :     0.058226
      f0      :     0.004859  f :     0.037728
      f+1     :     0.008780
      f-1     :     0.001689
      f+2     :     0.005674
      f-2     :     0.005703
      f+3     :     0.004281
      f-3     :     0.006744

 55 C s       :     2.773987  s :     2.773987
      pz      :     1.026657  p :     3.054565
      px      :     1.001630
      py      :     1.026277
      dz2     :     0.050540  d :     0.401685
      dxz     :     0.093238
      dyz     :     0.111487
      dx2y2   :     0.085853
      dxy     :     0.060568
      f0      :     0.005470  f :     0.038628
      f+1     :     0.008911
      f-1     :     0.001868
      f+2     :     0.005943
      f-2     :     0.005863
      f+3     :     0.004431
      f-3     :     0.006141

 56 C s       :     2.774578  s :     2.774578
      pz      :     1.018447  p :     3.035351
      px      :     0.992846
      py      :     1.024059
      dz2     :     0.050510  d :     0.402232
      dxz     :     0.093776
      dyz     :     0.108604
      dx2y2   :     0.087058
      dxy     :     0.062283
      f0      :     0.005366  f :     0.037742
      f+1     :     0.008052
      f-1     :     0.001984
      f+2     :     0.005599
      f-2     :     0.005942
      f+3     :     0.005007
      f-3     :     0.005792

 57 C s       :     2.733671  s :     2.733671
      pz      :     0.996203  p :     2.976130
      px      :     0.985029
      py      :     0.994898
      dz2     :     0.078560  d :     0.527677
      dxz     :     0.115489
      dyz     :     0.133071
      dx2y2   :     0.113699
      dxy     :     0.086858
      f0      :     0.007039  f :     0.052544
      f+1     :     0.008879
      f-1     :     0.006232
      f+2     :     0.008958
      f-2     :     0.006946
      f+3     :     0.006546
      f-3     :     0.007944

 58 C s       :     2.827483  s :     2.827483
      pz      :     1.059878  p :     3.177478
      px      :     1.062711
      py      :     1.054888
      dz2     :     0.035938  d :     0.264743
      dxz     :     0.061086
      dyz     :     0.065631
      dx2y2   :     0.068404
      dxy     :     0.033685
      f0      :     0.002969  f :     0.024268
      f+1     :     0.002999
      f-1     :     0.004240
      f+2     :     0.004022
      f-2     :     0.002812
      f+3     :     0.002933
      f-3     :     0.004293

 59 C s       :     2.774584  s :     2.774584
      pz      :     1.011931  p :     3.035601
      px      :     1.004894
      py      :     1.018776
      dz2     :     0.051541  d :     0.402166
      dxz     :     0.094703
      dyz     :     0.105346
      dx2y2   :     0.074809
      dxy     :     0.075766
      f0      :     0.006230  f :     0.037738
      f+1     :     0.006594
      f-1     :     0.002609
      f+2     :     0.005762
      f-2     :     0.005754
      f+3     :     0.006614
      f-3     :     0.004175

 60 C s       :     2.774293  s :     2.774293
      pz      :     1.025076  p :     3.054895
      px      :     1.008529
      py      :     1.021291
      dz2     :     0.055988  d :     0.401606
      dxz     :     0.093489
      dyz     :     0.105868
      dx2y2   :     0.068815
      dxy     :     0.077446
      f0      :     0.006732  f :     0.038620
      f+1     :     0.006448
      f-1     :     0.003221
      f+2     :     0.006427
      f-2     :     0.005348
      f+3     :     0.006703
      f-3     :     0.003741

 61 C s       :     2.775470  s :     2.775470
      pz      :     1.017901  p :     3.037167
      px      :     1.000555
      py      :     1.018712
      dz2     :     0.057323  d :     0.402466
      dxz     :     0.091372
      dyz     :     0.105291
      dx2y2   :     0.070552
      dxy     :     0.077928
      f0      :     0.006449  f :     0.037730
      f+1     :     0.005900
      f-1     :     0.003253
      f+2     :     0.006831
      f-2     :     0.004799
      f+3     :     0.006233
      f-3     :     0.004265

 62 C s       :     2.736771  s :     2.736771
      pz      :     1.002689  p :     2.993155
      px      :     0.992523
      py      :     0.997943
      dz2     :     0.096355  d :     0.535051
      dxz     :     0.115223
      dyz     :     0.122033
      dx2y2   :     0.094808
      dxy     :     0.106633
      f0      :     0.009286  f :     0.053309
      f+1     :     0.006564
      f-1     :     0.007392
      f+2     :     0.007110
      f-2     :     0.009285
      f+3     :     0.008191
      f-3     :     0.005480

 63 C s       :     2.830392  s :     2.830392
      pz      :     1.056321  p :     3.178047
      px      :     1.069903
      py      :     1.051824
      dz2     :     0.064849  d :     0.265029
      dxz     :     0.043702
      dyz     :     0.050297
      dx2y2   :     0.046587
      dxy     :     0.059594
      f0      :     0.002866  f :     0.024253
      f+1     :     0.002819
      f-1     :     0.004770
      f+2     :     0.002750
      f-2     :     0.004623
      f+3     :     0.003655
      f-3     :     0.002770

 64 C s       :     2.831986  s :     2.831986
      pz      :     1.046808  p :     3.176186
      px      :     1.057899
      py      :     1.071479
      dz2     :     0.052323  d :     0.266294
      dxz     :     0.043044
      dyz     :     0.090887
      dx2y2   :     0.050699
      dxy     :     0.029341
      f0      :     0.006016  f :     0.024290
      f+1     :     0.003806
      f-1     :     0.002579
      f+2     :     0.003863
      f-2     :     0.003868
      f+3     :     0.002260
      f-3     :     0.001896

 65 H s       :     0.770415  s :     0.770415
      pz      :     0.024765  p :     0.062414
      px      :     0.024848
      py      :     0.012801

 66 H s       :     0.770462  s :     0.770462
      pz      :     0.015732  p :     0.062488
      px      :     0.017556
      py      :     0.029201

 67 H s       :     0.768787  s :     0.768787
      pz      :     0.022566  p :     0.061794
      px      :     0.026506
      py      :     0.012721

 68 H s       :     0.767781  s :     0.767781
      pz      :     0.013598  p :     0.059565
      px      :     0.012598
      py      :     0.033369

 69 H s       :     0.772949  s :     0.772949
      pz      :     0.012388  p :     0.059127
      px      :     0.028863
      py      :     0.017877

 70 H s       :     0.809478  s :     0.809478
      pz      :     0.012960  p :     0.062377
      px      :     0.026147
      py      :     0.023271

 71 H s       :     0.810483  s :     0.810483
      pz      :     0.027300  p :     0.062773
      px      :     0.013691
      py      :     0.021782

 72 H s       :     0.805974  s :     0.805974
      pz      :     0.012838  p :     0.062489
      px      :     0.030710
      py      :     0.018940

 73 H s       :     0.789773  s :     0.789773
      pz      :     0.030359  p :     0.061876
      px      :     0.013336
      py      :     0.018180

 74 H s       :     0.787507  s :     0.787507
      pz      :     0.013661  p :     0.060154
      px      :     0.012233
      py      :     0.034260

 75 H s       :     0.781792  s :     0.781792
      pz      :     0.029545  p :     0.061857
      px      :     0.014130
      py      :     0.018182

 76 H s       :     0.772377  s :     0.772377
      pz      :     0.013966  p :     0.061203
      px      :     0.012507
      py      :     0.034731

 77 H s       :     0.802990  s :     0.802990
      pz      :     0.014930  p :     0.062760
      px      :     0.031262
      py      :     0.016568

 78 H s       :     0.798077  s :     0.798077
      pz      :     0.013135  p :     0.062937
      px      :     0.012944
      py      :     0.036859

 79 H s       :     0.798437  s :     0.798437
      pz      :     0.031501  p :     0.062209
      px      :     0.014057
      py      :     0.016650

 80 H s       :     0.782501  s :     0.782501
      pz      :     0.020222  p :     0.060069
      px      :     0.021907
      py      :     0.017940

 81 H s       :     0.807277  s :     0.807277
      pz      :     0.013093  p :     0.063907
      px      :     0.018971
      py      :     0.031842

 82 H s       :     0.805890  s :     0.805890
      pz      :     0.023105  p :     0.064789
      px      :     0.022628
      py      :     0.019056

 83 H s       :     0.800565  s :     0.800565
      pz      :     0.015491  p :     0.062111
      px      :     0.018235
      py      :     0.028384

 84 H s       :     0.803289  s :     0.803289
      pz      :     0.018536  p :     0.062779
      px      :     0.031212
      py      :     0.013032

 85 H s       :     0.801654  s :     0.801654
      pz      :     0.035528  p :     0.062228
      px      :     0.013829
      py      :     0.012871

 86 H s       :     0.793217  s :     0.793217
      pz      :     0.013201  p :     0.059986
      px      :     0.014002
      py      :     0.032783

 87 H s       :     0.793201  s :     0.793201
      pz      :     0.016890  p :     0.060020
      px      :     0.025208
      py      :     0.017922

 88 H s       :     0.815538  s :     0.815538
      pz      :     0.020469  p :     0.062279
      px      :     0.028154
      py      :     0.013656

 89 H s       :     0.814473  s :     0.814473
      pz      :     0.013199  p :     0.062383
      px      :     0.014695
      py      :     0.034489

 90 H s       :     0.815043  s :     0.815043
      pz      :     0.017489  p :     0.062578
      px      :     0.027313
      py      :     0.017776

 91 H s       :     0.796092  s :     0.796092
      pz      :     0.024023  p :     0.062369
      px      :     0.013983
      py      :     0.024363

 92 H s       :     0.799211  s :     0.799211
      pz      :     0.017266  p :     0.062792
      px      :     0.016688
      py      :     0.028839

 93 H s       :     0.795061  s :     0.795061
      pz      :     0.017703  p :     0.062355
      px      :     0.029739
      py      :     0.014913

 94 H s       :     0.756047  s :     0.756047
      pz      :     0.021661  p :     0.061657
      px      :     0.027926
      py      :     0.012069

 95 H s       :     0.819166  s :     0.819166
      pz      :     0.036160  p :     0.063703
      px      :     0.017453
      py      :     0.010089

 96 H s       :     0.817680  s :     0.817680
      pz      :     0.012940  p :     0.063738
      px      :     0.033412
      py      :     0.017386

 97 H s       :     0.815944  s :     0.815944
      pz      :     0.021129  p :     0.062957
      px      :     0.025221
      py      :     0.016606

 98 H s       :     0.799895  s :     0.799895
      pz      :     0.021922  p :     0.060594
      px      :     0.010138
      py      :     0.028534

 99 H s       :     0.802228  s :     0.802228
      pz      :     0.019199  p :     0.062749
      px      :     0.010604
      py      :     0.032946

100 H s       :     0.788304  s :     0.788304
      pz      :     0.020356  p :     0.061161
      px      :     0.013160
      py      :     0.027645

101 H s       :     0.801586  s :     0.801586
      pz      :     0.022455  p :     0.062041
      px      :     0.014863
      py      :     0.024723

102 H s       :     0.800540  s :     0.800540
      pz      :     0.026350  p :     0.062875
      px      :     0.023453
      py      :     0.013072

103 H s       :     0.807731  s :     0.807731
      pz      :     0.016534  p :     0.063776
      px      :     0.033736
      py      :     0.013507

104 H s       :     0.792549  s :     0.792549
      pz      :     0.021431  p :     0.059285
      px      :     0.012492
      py      :     0.025363

105 H s       :     0.793889  s :     0.793889
      pz      :     0.018524  p :     0.059237
      px      :     0.012044
      py      :     0.028669

106 H s       :     0.800897  s :     0.800897
      pz      :     0.022122  p :     0.060593
      px      :     0.012860
      py      :     0.025611

107 H s       :     0.799510  s :     0.799510
      pz      :     0.018870  p :     0.060196
      px      :     0.012873
      py      :     0.028453

108 H s       :     0.798913  s :     0.798913
      pz      :     0.022559  p :     0.059448
      px      :     0.012382
      py      :     0.024508

109 H s       :     0.800003  s :     0.800003
      pz      :     0.018222  p :     0.059408
      px      :     0.012692
      py      :     0.028494

110 H s       :     0.790045  s :     0.790045
      pz      :     0.018822  p :     0.057145
      px      :     0.012485
      py      :     0.025838

111 H s       :     0.815413  s :     0.815413
      pz      :     0.022804  p :     0.063201
      px      :     0.026914
      py      :     0.013483

112 H s       :     0.815130  s :     0.815130
      pz      :     0.019182  p :     0.063237
      px      :     0.030486
      py      :     0.013570

113 H s       :     0.813573  s :     0.813573
      pz      :     0.019424  p :     0.061822
      px      :     0.013647
      py      :     0.028751

114 H s       :     0.800143  s :     0.800143
      pz      :     0.021363  p :     0.059381
      px      :     0.013243
      py      :     0.024774

115 H s       :     0.800752  s :     0.800752
      pz      :     0.019009  p :     0.059350
      px      :     0.012750
      py      :     0.027591

116 H s       :     0.802863  s :     0.802863
      pz      :     0.020381  p :     0.061203
      px      :     0.014732
      py      :     0.026090

117 H s       :     0.802288  s :     0.802288
      pz      :     0.019891  p :     0.059229
      px      :     0.012630
      py      :     0.026708

118 H s       :     0.800317  s :     0.800317
      pz      :     0.020698  p :     0.059364
      px      :     0.014172
      py      :     0.024494

119 H s       :     0.800921  s :     0.800921
      pz      :     0.019398  p :     0.059350
      px      :     0.012778
      py      :     0.027174

120 H s       :     0.790625  s :     0.790625
      pz      :     0.019746  p :     0.057150
      px      :     0.012725
      py      :     0.024679

121 H s       :     0.813727  s :     0.813727
      pz      :     0.020540  p :     0.061788
      px      :     0.013778
      py      :     0.027471

122 H s       :     0.815654  s :     0.815654
      pz      :     0.026251  p :     0.063212
      px      :     0.022372
      py      :     0.014589

123 H s       :     0.815397  s :     0.815397
      pz      :     0.016560  p :     0.063220
      px      :     0.031679
      py      :     0.014981

124 H s       :     0.799842  s :     0.799842
      pz      :     0.019366  p :     0.059382
      px      :     0.017040
      py      :     0.022976

125 H s       :     0.801201  s :     0.801201
      pz      :     0.020066  p :     0.059322
      px      :     0.013251
      py      :     0.026005

126 H s       :     0.802344  s :     0.802344
      pz      :     0.018047  p :     0.060171
      px      :     0.018427
      py      :     0.023697

127 H s       :     0.802158  s :     0.802158
      pz      :     0.021394  p :     0.060060
      px      :     0.013472
      py      :     0.025193

128 H s       :     0.801512  s :     0.801512
      pz      :     0.017106  p :     0.059252
      px      :     0.017637
      py      :     0.024510

129 H s       :     0.799712  s :     0.799712
      pz      :     0.021999  p :     0.059362
      px      :     0.012807
      py      :     0.024555

130 H s       :     0.792323  s :     0.792323
      pz      :     0.016949  p :     0.057198
      px      :     0.016811
      py      :     0.023438

131 H s       :     0.814708  s :     0.814708
      pz      :     0.017250  p :     0.061831
      px      :     0.018797
      py      :     0.025785

132 H s       :     0.815163  s :     0.815163
      pz      :     0.014101  p :     0.062115
      px      :     0.032838
      py      :     0.015176

133 H s       :     0.816074  s :     0.816074
      pz      :     0.030102  p :     0.063013
      px      :     0.018387
      py      :     0.014525

134 H s       :     0.816152  s :     0.816152
      pz      :     0.021140  p :     0.062015
      px      :     0.013355
      py      :     0.027520

135 H s       :     0.815987  s :     0.815987
      pz      :     0.014154  p :     0.062090
      px      :     0.032630
      py      :     0.015306

136 H s       :     0.815356  s :     0.815356
      pz      :     0.018382  p :     0.061917
      px      :     0.017631
      py      :     0.025904



                      *****************************
                      * MAYER POPULATION ANALYSIS *
                      *****************************

  NA   - Mulliken gross atomic population
  ZA   - Total nuclear charge
  QA   - Mulliken gross atomic charge
  VA   - Mayer's total valence
  BVA  - Mayer's bonded valence
  FA   - Mayer's free valence

  ATOM       NA         ZA         QA         VA         BVA        FA
  0 Mg    11.2811    12.0000     0.7189     2.0353     2.0353    -0.0000
  1 C      6.2593     6.0000    -0.2593     3.8548     3.8548     0.0000
  2 C      6.5926     6.0000    -0.5926     3.9452     3.9452    -0.0000
  3 C      6.5025     6.0000    -0.5025     3.9713     3.9713     0.0000
  4 C      6.4846     6.0000    -0.4846     3.9127     3.9127    -0.0000
  5 N      7.3323     7.0000    -0.3323     3.0125     3.0125     0.0000
  6 C      5.7619     6.0000     0.2381     3.6456     3.6456     0.0000
  7 C      5.9534     6.0000     0.0466     3.9758     3.9758     0.0000
  8 C      5.9039     6.0000     0.0961     3.9063     3.9063     0.0000
  9 C      5.8129     6.0000     0.1871     4.0321     4.0321     0.0000
 10 C      6.4545     6.0000    -0.4545     3.9374     3.9374    -0.0000
 11 C      6.3426     6.0000    -0.3426     4.0488     4.0488    -0.0000
 12 C      6.1982     6.0000    -0.1982     3.8954     3.8954    -0.0000
 13 C      5.6908     6.0000     0.3092     4.2888     4.2888    -0.0000
 14 O      8.3994     8.0000    -0.3994     2.1073     2.1073    -0.0000
 15 O      8.2313     8.0000    -0.2313     2.1476     2.1476    -0.0000
 16 N      7.3178     7.0000    -0.3178     3.0722     3.0722     0.0000
 17 C      5.6545     6.0000     0.3455     3.6809     3.6809    -0.0000
 18 C      6.0505     6.0000    -0.0505     3.6765     3.6765    -0.0000
 19 C      5.9791     6.0000     0.0209     3.7212     3.7212    -0.0000
 20 C      5.6789     6.0000     0.3211     3.6618     3.6618     0.0000
 21 C      6.4509     6.0000    -0.4509     3.8586     3.8586    -0.0000
 22 C      6.2463     6.0000    -0.2463     3.9045     3.9045    -0.0000
 23 C      6.3175     6.0000    -0.3175     3.8983     3.8983    -0.0000
 24 N      7.3183     7.0000    -0.3183     3.0381     3.0381    -0.0000
 25 C      5.7211     6.0000     0.2789     3.8153     3.8153    -0.0000
 26 C      6.0721     6.0000    -0.0721     3.7248     3.7248     0.0000
 27 C      6.0321     6.0000    -0.0321     3.7345     3.7345    -0.0000
 28 C      5.6687     6.0000     0.3313     3.5799     3.5799    -0.0000
 29 C      6.4363     6.0000    -0.4363     3.8607     3.8607     0.0000
 30 C      6.2631     6.0000    -0.2631     3.9001     3.9001    -0.0000
 31 C      6.3981     6.0000    -0.3981     3.8952     3.8952    -0.0000
 32 N      7.3380     7.0000    -0.3380     3.0478     3.0478     0.0000
 33 C      5.7084     6.0000     0.2916     3.7752     3.7752    -0.0000
 34 C      6.1522     6.0000    -0.1522     3.8311     3.8311     0.0000
 35 C      5.9931     6.0000     0.0069     3.2817     3.2817     0.0000
 36 C      5.7968     6.0000     0.2032     3.7992     3.7992     0.0000
 37 C      6.4509     6.0000    -0.4509     3.8494     3.8494    -0.0000
 38 C      5.9281     6.0000     0.0719     4.3975     4.3975    -0.0000
 39 O      8.3491     8.0000    -0.3491     2.1773     2.1773    -0.0000
 40 C      5.8724     6.0000     0.1276     3.4560     3.4560    -0.0000
 41 C      5.7428     6.0000     0.2572     4.3627     4.3627     0.0000
 42 O      8.3830     8.0000    -0.3830     2.1334     2.1334     0.0000
 43 O      8.2341     8.0000    -0.2341     2.1631     2.1631    -0.0000
 44 C      6.2618     6.0000    -0.2618     3.8668     3.8668     0.0000
 45 C      6.0769     6.0000    -0.0769     3.9084     3.9084     0.0000
 46 C      6.2210     6.0000    -0.2210     3.9498     3.9498     0.0000
 47 C      5.9525     6.0000     0.0475     3.8710     3.8710     0.0000
 48 C      6.4086     6.0000    -0.4086     3.8993     3.8993    -0.0000
 49 C      6.1838     6.0000    -0.1838     3.8942     3.8942    -0.0000
 50 C      6.2826     6.0000    -0.2826     3.9765     3.9765     0.0000
 51 C      6.2087     6.0000    -0.2087     3.9677     3.9677    -0.0000
 52 C      5.9492     6.0000     0.0508     3.8957     3.8957    -0.0000
 53 C      6.4550     6.0000    -0.4550     3.9299     3.9299    -0.0000
 54 C      6.2134     6.0000    -0.2134     3.9810     3.9810     0.0000
 55 C      6.2535     6.0000    -0.2535     4.0186     4.0186    -0.0000
 56 C      6.2137     6.0000    -0.2137     3.9885     3.9885    -0.0000
 57 C      5.9428     6.0000     0.0572     3.8935     3.8935    -0.0000
 58 C      6.4560     6.0000    -0.4560     3.9277     3.9277     0.0000
 59 C      6.2134     6.0000    -0.2134     3.9857     3.9857    -0.0000
 60 C      6.2505     6.0000    -0.2505     4.0056     4.0056     0.0000
 61 C      6.2248     6.0000    -0.2248     3.9488     3.9488    -0.0000
 62 C      5.9712     6.0000     0.0288     3.8882     3.8882    -0.0000
 63 C      6.4317     6.0000    -0.4317     3.9129     3.9129    -0.0000
 64 C      6.3975     6.0000    -0.3975     3.9057     3.9057    -0.0000
 65 H      0.8502     1.0000     0.1498     0.9656     0.9656    -0.0000
 66 H      0.8428     1.0000     0.1572     0.9588     0.9588     0.0000
 67 H      0.8334     1.0000     0.1666     0.9533     0.9533    -0.0000
 68 H      0.8792     1.0000     0.1208     0.9713     0.9713    -0.0000
 69 H      0.8945     1.0000     0.1055     0.9670     0.9670     0.0000
 70 H      0.8588     1.0000     0.1412     0.9670     0.9670    -0.0000
 71 H      0.8590     1.0000     0.1410     0.9731     0.9731    -0.0000
 72 H      0.8580     1.0000     0.1420     0.9700     0.9700    -0.0000
 73 H      0.8655     1.0000     0.1345     0.9919     0.9919    -0.0000
 74 H      0.8661     1.0000     0.1339     0.9710     0.9710    -0.0000
 75 H      0.8556     1.0000     0.1444     0.9928     0.9928    -0.0000
 76 H      0.8511     1.0000     0.1489     0.9756     0.9756    -0.0000
 77 H      0.8491     1.0000     0.1509     0.9666     0.9666    -0.0000
 78 H      0.8378     1.0000     0.1622     0.9608     0.9608    -0.0000
 79 H      0.8370     1.0000     0.1630     0.9508     0.9508    -0.0000
 80 H      0.8542     1.0000     0.1458     0.9699     0.9699    -0.0000
 81 H      0.8436     1.0000     0.1564     0.9678     0.9678    -0.0000
 82 H      0.8333     1.0000     0.1667     0.9599     0.9599    -0.0000
 83 H      0.8468     1.0000     0.1532     0.9575     0.9575     0.0000
 84 H      0.8523     1.0000     0.1477     0.9719     0.9719     0.0000
 85 H      0.8492     1.0000     0.1508     0.9585     0.9585     0.0000
 86 H      0.8736     1.0000     0.1264     0.9654     0.9654    -0.0000
 87 H      0.8700     1.0000     0.1300     0.9635     0.9635    -0.0000
 88 H      0.8658     1.0000     0.1342     0.9683     0.9683    -0.0000
 89 H      0.8677     1.0000     0.1323     0.9709     0.9709     0.0000
 90 H      0.8664     1.0000     0.1336     0.9736     0.9736    -0.0000
 91 H      0.8426     1.0000     0.1574     0.9579     0.9579     0.0000
 92 H      0.8426     1.0000     0.1574     0.9792     0.9792    -0.0000
 93 H      0.8408     1.0000     0.1592     0.9570     0.9570    -0.0000
 94 H      0.8741     1.0000     0.1259     1.0004     1.0004     0.0000
 95 H      0.8491     1.0000     0.1509     0.9647     0.9647    -0.0000
 96 H      0.8463     1.0000     0.1537     0.9658     0.9658    -0.0000
 97 H      0.8395     1.0000     0.1605     0.9640     0.9640     0.0000
 98 H      0.8614     1.0000     0.1386     0.9679     0.9679     0.0000
 99 H      0.8741     1.0000     0.1259     0.9843     0.9843     0.0000
100 H      0.8650     1.0000     0.1350     0.9734     0.9734    -0.0000
101 H      0.8581     1.0000     0.1419     0.9662     0.9662     0.0000
102 H      0.8450     1.0000     0.1550     0.9564     0.9564     0.0000
103 H      0.8580     1.0000     0.1420     0.9718     0.9718    -0.0000
104 H      0.8785     1.0000     0.1215     0.9707     0.9707    -0.0000
105 H      0.8818     1.0000     0.1182     0.9788     0.9788    -0.0000
106 H      0.8837     1.0000     0.1163     0.9749     0.9749     0.0000
107 H      0.8853     1.0000     0.1147     0.9701     0.9701     0.0000
108 H      0.8952     1.0000     0.1048     0.9759     0.9759     0.0000
109 H      0.8964     1.0000     0.1036     0.9791     0.9791     0.0000
110 H      0.9322     1.0000     0.0678     0.9750     0.9750     0.0000
111 H      0.8625     1.0000     0.1375     0.9662     0.9662    -0.0000
112 H      0.8618     1.0000     0.1382     0.9661     0.9661    -0.0000
113 H      0.8816     1.0000     0.1184     0.9760     0.9760    -0.0000
114 H      0.8959     1.0000     0.1041     0.9759     0.9759     0.0000
115 H      0.9001     1.0000     0.0999     0.9786     0.9786     0.0000
116 H      0.8852     1.0000     0.1148     0.9717     0.9717    -0.0000
117 H      0.9022     1.0000     0.0978     0.9733     0.9733     0.0000
118 H      0.8963     1.0000     0.1037     0.9757     0.9757     0.0000
119 H      0.9008     1.0000     0.0992     0.9787     0.9787     0.0000
120 H      0.9335     1.0000     0.0665     0.9751     0.9751    -0.0000
121 H      0.8821     1.0000     0.1179     0.9761     0.9761    -0.0000
122 H      0.8627     1.0000     0.1373     0.9663     0.9663     0.0000
123 H      0.8618     1.0000     0.1382     0.9659     0.9659     0.0000
124 H      0.8973     1.0000     0.1027     0.9747     0.9747     0.0000
125 H      0.8994     1.0000     0.1006     0.9787     0.9787    -0.0000
126 H      0.8945     1.0000     0.1055     0.9726     0.9726     0.0000
127 H      0.8922     1.0000     0.1078     0.9710     0.9710     0.0000
128 H      0.8984     1.0000     0.1016     0.9802     0.9802    -0.0000
129 H      0.8965     1.0000     0.1035     0.9730     0.9730     0.0000
130 H      0.9264     1.0000     0.0736     0.9685     0.9685    -0.0000
131 H      0.8813     1.0000     0.1187     0.9772     0.9772    -0.0000
132 H      0.8692     1.0000     0.1308     0.9686     0.9686     0.0000
133 H      0.8624     1.0000     0.1376     0.9661     0.9661    -0.0000
134 H      0.8715     1.0000     0.1285     0.9713     0.9713    -0.0000
135 H      0.8684     1.0000     0.1316     0.9691     0.9691    -0.0000
136 H      0.8817     1.0000     0.1183     0.9774     0.9774    -0.0000

  Mayer bond orders larger than 0.100000
B(  0-Mg,  5-N ) :   0.4330 B(  0-Mg, 16-N ) :   0.5652 B(  0-Mg, 24-N ) :   0.5021 
B(  0-Mg, 32-N ) :   0.5714 B(  1-C ,  6-C ) :   1.3178 B(  1-C , 36-C ) :   1.2314 
B(  1-C , 40-C ) :   0.9470 B(  2-C ,  9-C ) :   1.4177 B(  2-C , 17-C ) :   1.2090 
B(  2-C , 65-H ) :   0.9645 B(  3-C , 20-C ) :   1.3377 B(  3-C , 25-C ) :   1.2836 
B(  3-C , 66-H ) :   0.9484 B(  4-C , 28-C ) :   1.2360 B(  4-C , 33-C ) :   1.3221 
B(  4-C , 67-H ) :   0.9807 B(  5-N ,  6-C ) :   1.1046 B(  5-N ,  9-C ) :   1.2817 
B(  6-C ,  7-C ) :   1.0723 B(  7-C ,  8-C ) :   0.9274 B(  7-C , 11-C ) :   0.8930 
B(  7-C , 68-H ) :   0.9306 B(  8-C ,  9-C ) :   1.0218 B(  8-C , 10-C ) :   0.8808 
B(  8-C , 11-C ) :   0.1056 B(  8-C , 69-H ) :   0.9280 B( 10-C , 70-H ) :   0.9671 
B( 10-C , 71-H ) :   0.9665 B( 10-C , 72-H ) :   0.9682 B( 11-C , 12-C ) :   1.0174 
B( 11-C , 73-H ) :   0.9630 B( 11-C , 74-H ) :   0.9475 B( 12-C , 13-C ) :   1.0248 
B( 12-C , 75-H ) :   0.9412 B( 12-C , 76-H ) :   0.9119 B( 13-C , 14-O ) :   1.9401 
B( 13-C , 15-O ) :   1.2396 B( 15-O , 45-C ) :   0.8598 B( 16-N , 17-C ) :   1.2471 
B( 16-N , 20-C ) :   1.1523 B( 17-C , 18-C ) :   1.1617 B( 18-C , 19-C ) :   1.5203 
B( 18-C , 21-C ) :   0.9228 B( 19-C , 20-C ) :   1.1136 B( 19-C , 22-C ) :   1.0417 
B( 21-C , 77-H ) :   0.9610 B( 21-C , 78-H ) :   0.9869 B( 21-C , 79-H ) :   0.9645 
B( 22-C , 23-C ) :   1.8830 B( 22-C , 80-H ) :   0.9526 B( 23-C , 81-H ) :   0.9561 
B( 23-C , 82-H ) :   0.9533 B( 24-N , 25-C ) :   1.2539 B( 24-N , 28-C ) :   1.1724 
B( 25-C , 26-C ) :   1.1523 B( 26-C , 27-C ) :   1.5675 B( 26-C , 29-C ) :   0.9417 
B( 27-C , 28-C ) :   1.1457 B( 27-C , 30-C ) :   0.9312 B( 29-C , 83-H ) :   0.9695 
B( 29-C , 84-H ) :   0.9826 B( 29-C , 85-H ) :   0.9684 B( 30-C , 31-C ) :   1.0075 
B( 30-C , 86-H ) :   0.9527 B( 30-C , 87-H ) :   0.9810 B( 31-C , 88-H ) :   0.9655 
B( 31-C , 89-H ) :   0.9718 B( 31-C , 90-H ) :   0.9704 B( 32-N , 33-C ) :   1.0902 
B( 32-N , 36-C ) :   1.2973 B( 33-C , 34-C ) :   1.2561 B( 34-C , 35-C ) :   1.4063 
B( 34-C , 37-C ) :   0.9311 B( 35-C , 36-C ) :   1.1803 B( 35-C , 38-C ) :   0.9391 
B( 35-C , 39-O ) :  -0.1270 B( 37-C , 91-H ) :   0.9669 B( 37-C , 92-H ) :   0.9888 
B( 37-C , 93-H ) :   0.9643 B( 38-C , 39-O ) :   2.2164 B( 38-C , 40-C ) :   0.9340 
B( 40-C , 41-C ) :   0.9200 B( 40-C , 94-H ) :   0.8960 B( 41-C , 42-O ) :   2.0006 
B( 41-C , 43-O ) :   1.2323 B( 43-O , 44-C ) :   0.8960 B( 44-C , 95-H ) :   0.9674 
B( 44-C , 96-H ) :   0.9677 B( 44-C , 97-H ) :   0.9634 B( 45-C , 46-C ) :   1.0102 
B( 45-C , 98-H ) :   0.9454 B( 45-C , 99-H ) :   0.9637 B( 46-C , 47-C ) :   1.8780 
B( 46-C ,100-H ) :   0.9437 B( 47-C , 48-C ) :   0.9770 B( 47-C , 49-C ) :   0.9577 
B( 48-C ,101-H ) :   0.9581 B( 48-C ,102-H ) :   0.9532 B( 48-C ,103-H ) :   0.9682 
B( 49-C , 50-C ) :   0.9904 B( 49-C ,104-H ) :   0.9521 B( 49-C ,105-H ) :   0.9595 
B( 50-C , 51-C ) :   1.0200 B( 50-C ,106-H ) :   0.9626 B( 50-C ,107-H ) :   0.9569 
B( 51-C , 52-C ) :   1.0066 B( 51-C ,108-H ) :   0.9548 B( 51-C ,109-H ) :   0.9471 
B( 52-C , 53-C ) :   0.9411 B( 52-C , 54-C ) :   1.0083 B( 52-C ,110-H ) :   0.9448 
B( 53-C ,111-H ) :   0.9734 B( 53-C ,112-H ) :   0.9739 B( 53-C ,113-H ) :   0.9639 
B( 54-C , 55-C ) :   1.0315 B( 54-C ,114-H ) :   0.9582 B( 54-C ,115-H ) :   0.9470 
B( 55-C , 56-C ) :   1.0338 B( 55-C ,116-H ) :   0.9617 B( 55-C ,117-H ) :   0.9471 
B( 56-C , 57-C ) :   1.0108 B( 56-C ,118-H ) :   0.9582 B( 56-C ,119-H ) :   0.9462 
B( 57-C , 58-C ) :   0.9367 B( 57-C , 59-C ) :   1.0134 B( 57-C ,120-H ) :   0.9430 
B( 58-C ,121-H ) :   0.9644 B( 58-C ,122-H ) :   0.9734 B( 58-C ,123-H ) :   0.9738 
B( 59-C , 60-C ) :   1.0289 B( 59-C ,124-H ) :   0.9569 B( 59-C ,125-H ) :   0.9467 
B( 60-C , 61-C ) :   1.0198 B( 60-C ,126-H ) :   0.9535 B( 60-C ,127-H ) :   0.9583 
B( 61-C , 62-C ) :   1.0022 B( 61-C ,128-H ) :   0.9567 B( 61-C ,129-H ) :   0.9540 
B( 62-C , 63-C ) :   0.9727 B( 62-C , 64-C ) :   0.9814 B( 62-C ,130-H ) :   0.9494 
B( 63-C ,131-H ) :   0.9656 B( 63-C ,132-H ) :   0.9699 B( 63-C ,133-H ) :   0.9735 
B( 64-C ,134-H ) :   0.9720 B( 64-C ,135-H ) :   0.9739 B( 64-C ,136-H ) :   0.9663 


-------
TIMINGS
-------

Total SCF time: 0 days 1 hours 56 min 3 sec 

Total time                  ....    6963.968 sec
Sum of individual times     ....    6656.053 sec  ( 95.6%)

SCF preparation             ....      27.790 sec  (  0.4%)
Fock matrix formation       ....    6479.122 sec  ( 93.0%)
  Startup                   ....       0.940 sec  (  0.0% of F)
  Split-RI-J                ....     490.005 sec  (  7.6% of F)
  Chain of spheres X        ....    5258.808 sec  ( 81.2% of F)
  XC integration            ....     454.182 sec  (  7.0% of F)
    XC Preparation          ....       0.000 sec  (  0.0% of XC)
    Basis function eval.    ....     131.205 sec  ( 28.9% of XC)
    Density eval.           ....     185.368 sec  ( 40.8% of XC)
    XC-Functional eval.     ....       5.445 sec  (  1.2% of XC)
    XC-Potential eval.      ....     108.583 sec  ( 23.9% of XC)
  CPCM terms                ....     584.657 sec  (  9.0% of F)
Diagonalization             ....       0.000 sec  (  0.0%)
Density matrix formation    ....       9.048 sec  (  0.1%)
Total Energy calculation    ....       3.819 sec  (  0.1%)
Population analysis         ....       7.898 sec  (  0.1%)
Orbital Transformation      ....      14.402 sec  (  0.2%)
Orbital Orthonormalization  ....       0.000 sec  (  0.0%)
DIIS solution               ....      56.224 sec  (  0.8%)
SOSCF solution              ....      50.793 sec  (  0.7%)
Finished LeanSCF after 6974.7 sec

Maximum memory used throughout the entire LEANSCF-calculation: 674.4 MB


           ************************************************************
           *        Program running with 4 parallel MPI-processes     *
           *              working on a common directory               *
           ************************************************************

------------------------------------------------------------------------------
                         ORCA PROPERTY INTEGRAL CALCULATIONS
------------------------------------------------------------------------------

GBWName                                   ... tddft.gbw
Number of atoms                           ...    137
Number of basis functions                 ...   2448
Max core memory                           ...   2200 MB

Dipole integrals                          ... YES
Quadrupole integrals                      ...  NO
Linear momentum integrals                 ... YES
Angular momentum integrals                ... YES
Higher moments length integrals           ...  NO
Higher moments velocity integrals         ...  NO
Kinetic energy integrals                  ...  NO
GIAO right hand sides                     ...  NO
GIAO dipole derivative integrals          ...  NO
SOC integrals                             ...  NO
EPR diamagnetic integrals (GIAO)          ...  NO
EPR gauge integrals                       ...  NO
Field gradient integrals                  ...  NO (   0 nuclei)
Spin-dipole/Fermi contact integrals       ...  NO (   0 nuclei)
Contact density integrals                 ...  NO (   0 nuclei)
Nucleus-orbit integrals                   ...  NO (   0 nuclei)
Geometric perturbations                   ...  NO ( 137 nuclei)

Choice of electric origin   ... Center of mass
Position of electric origin ... ( -0.0351, -0.0377, -0.2776) 
Choice of magnetic origin   ... GIAO
Position of magnetic origin ... (  0.0000,  0.0000,  0.0000) 

Calculating integrals                     ... Electric Dipole (Length)     done (  0.5 sec)
Calculating integrals                     ... Linear Momentum              done (  1.1 sec)
Calculating integrals                     ... Angular Momentum  (ElOri)    done (  1.1 sec)

Property integrals calculated in   3.0 sec

Maximum memory used throughout the entire PROPINT-calculation: 471.7 MB


           ************************************************************
           *        Program running with 4 parallel MPI-processes     *
           *              working on a common directory               *
           ************************************************************
------------------------------------------------------------------------------
                          ORCA TD-DFT CALCULATION
------------------------------------------------------------------------------

Input orbitals are from        ... tddft.gbw
CI-vector output               ... tddft.cis
Solver                         ... FN-2001
Tamm-Dancoff approximation     ... deactivated
RPA-Integral strategy          ... AO-integrals
Integral handling              ... AO integral Direct
Max. core memory used          ... 2200 MB
Reference state                ... RHF
Generation of triplets         ... off
Follow IRoot                   ... off
Number of operators            ... 1
Orbital ranges used for CIS calculation:
 Operator 0:  Orbitals  65...240  to 241...2447
XAS localization array:
 Operator 0:  Orbitals  -1... -1

-------------------
XC-INTEGRATION GRID
-------------------

General Integration Accuracy     IntAcc      ... 3.467
Radial Grid Type                 RadialGrid  ... OptM3 with GC (2021)
Angular Grid (max. ang.)         AngularGrid ... 3 (Lebedev-194)
Angular grid pruning method      GridPruning ... 4 (adaptive)
Weight generation scheme         WeightScheme... mBecke (2022)
Basis function cutoff            BFCut       ... 1.0000e-11
Integration weight cutoff        WCut        ... 1.0000e-14
Partially contracted basis set               ... off
Rotationally invariant grid construction     ... off
Angular grids for H and He will be reduced by one unit

Total number of grid points                  ...   230376
Total number of batches                      ...     3674
Average number of points per batch           ...       62
Average number of grid points per atom       ...     1682

---------------------
COSX-INTEGRATION GRID
---------------------

General Integration Accuracy     IntAcc      ... 3.067
Radial Grid Type                 RadialGrid  ... OptM3 with GC (2021)
Angular Grid (max. ang.)         AngularGrid ... 2 (Lebedev-110)
Angular grid pruning method      GridPruning ... 4 (adaptive)
Weight generation scheme         WeightScheme... mBecke (2022)
Basis function cutoff            BFCut       ... 1.0000e-11
Integration weight cutoff        WCut        ... 1.0000e-14
Partially contracted basis set               ... on
Rotationally invariant grid construction     ... off
Angular grids for H and He will be reduced by one unit

Total number of grid points                  ...    90751
Total number of batches                      ...      785
Average number of points per batch           ...      115
Average number of grid points per atom       ...      662

---------------
TD-DFT XC SETUP
---------------

DFT calculation                         ... on
Name of the grid file                   ... tddft.grid_cis.tmp
RI-approximation                        ... on
Aux-basis dimension                     ... 0
Exchange functional (TD-DFT)            ... PBE
   PBE kappa parameter  XKappa (TD-DFT) ...  0.804000
   PBE mue parameter   XMuePBE (TD-DFT) ...  0.219520
Correlation functional (TD-DFT)         ... PBE
   PBE beta parameter CBetaPBE (TD-DFT) ...  0.066725
 LDA part of GGA corr.  LDAOpt (TD-DFT) ... PW91-LDA
Hybrid DFT                              ... on
   Exchange mixing (TD-DFT)             ...  0.250
   GGA exch. scaling (TD-DFT)           ...  0.750
   GGA corr. scaling (TD-DFT)           ...  1.000

Building densities             ... done
Calculating rho(r) on the grid ... done
Building xc-kernel on the grid ... done
                    *** TD-DFT CALCULATION INITIALIZED ***

---------------------------------
    LR-CPCM (non-equilibrium)
---------------------------------

Setting up CPCM data             ... done

-------------------
RPA-DIAGONALIZATION
-------------------

Dimension of the (A+B)(A-B) eigenvalue problem ... 388432
Number of roots to be determined               ...     30
Maximum size of the expansion space            ...    900
Convergence tolerance for the residual         ...    2.500e-07
Convergence tolerance for the energies         ...    2.500e-07
Orthogonality tolerance                        ...    1.000e-14
Constructing the preconditioner                ... o.k.
Building the initial guess                     ... o.k.
Number of trial vectors determined             ...    900


                       ****Iteration    0****
   Time for iteration     :  TOTAL=15943.4 TRAFO=97.8 RIJ=1168.1 COSX=10397.2 XC=1508.6 CPCM=2716.0
   Size of expansion space: 90
   Lowest Energy          :     0.085171964626
   Maximum Energy change  :     0.185653845868 (vector 29)
   Maximum residual norm  :     0.028029388123

                       ****Iteration    1****
   Time for iteration     :  TOTAL=5941.7 TRAFO=34.8 RIJ=385.6 COSX=3928.6 XC=648.3 CPCM=926.5
   Size of expansion space: 120
   Lowest Energy          :     0.076294146941
   Maximum Energy change  :     0.011836361284 (vector 3)
   Maximum residual norm  :     0.001571310286

                       ****Iteration    2****
   Time for iteration     :  TOTAL=5670.0 TRAFO=30.7 RIJ=414.1 COSX=3588.8 XC=717.4 CPCM=897.2
   Size of expansion space: 150
   Lowest Energy          :     0.075809209261
   Maximum Energy change  :     0.001149706033 (vector 27)
   Maximum residual norm  :     0.000425171689

                       ****Iteration    3****
   Time for iteration     :  TOTAL=5400.0 TRAFO=31.3 RIJ=357.5 COSX=3573.4 XC=598.2 CPCM=815.3
   Size of expansion space: 180
   Lowest Energy          :     0.075713758704
   Maximum Energy change  :     0.000321954788 (vector 9)
   Maximum residual norm  :     0.000158886255

                       ****Iteration    4****
   Time for iteration     :  TOTAL=4854.1 TRAFO=35.4 RIJ=357.3 COSX=3054.1 XC=581.2 CPCM=812.6
   Size of expansion space: 210
   Lowest Energy          :     0.075694850354
   Maximum Energy change  :     0.000081395746 (vector 27)
   Maximum residual norm  :     0.000023365658

                       ****Iteration    5****
   Time for iteration     :  TOTAL=4883.3 TRAFO=33.9 RIJ=355.3 COSX=3144.4 XC=561.8 CPCM=764.6
   Size of expansion space: 240
   Lowest Energy          :     0.075693751824
   Maximum Energy change  :     0.000020020431 (vector 23)
   Maximum residual norm  :     0.000005928383

                       ****Iteration    6****
   Time for iteration     :  TOTAL=3999.9 TRAFO=23.8 RIJ=328.8 COSX=2476.8 XC=415.9 CPCM=744.3
   Size of expansion space: 270
   Lowest Energy          :     0.075693474882
   Maximum Energy change  :     0.000002717361 (vector 27)
   Maximum residual norm  :     0.000001751870

                       ****Iteration    7****
   Time for iteration     :  TOTAL=3967.6 TRAFO=24.8 RIJ=319.0 COSX=2504.3 XC=384.5 CPCM=719.2
   Size of expansion space: 300
   Lowest Energy          :     0.075693429161
   Maximum Energy change  :     0.000000845363 (vector 27)
   Maximum residual norm  :     0.000000403854

                       ****Iteration    8****
   Time for iteration     :  TOTAL=3795.6 TRAFO=21.8 RIJ=313.6 COSX=2371.3 XC=361.7 CPCM=711.1
   Size of expansion space: 330
   Lowest Energy          :     0.075693426710
   Maximum Energy change  :     0.000000159527 (vector 23)

         *** CONVERGENCE OF ENERGIES REACHED ***

Storing the converged CI vectors               ... tddft.cis1

                 *** DAVIDSON DONE ***

Total time for solving the RPA problem: 55671.478sec

--------------------------------
TD-DFT EXCITED STATES (SINGLETS)
--------------------------------

the weight of the individual excitations are printed if larger than 1.0e-02

STATE  1:  E=   0.075693 au      2.060 eV    16612.8 cm**-1 <S**2> =   0.000000 Mult 1
   239a -> 242a  :     0.077740 
   240a -> 241a  :     0.909372 

STATE  2:  E=   0.084766 au      2.307 eV    18603.9 cm**-1 <S**2> =   0.000000 Mult 1
   239a -> 241a  :     0.778635 
   240a -> 242a  :     0.204465 

STATE  3:  E=   0.110173 au      2.998 eV    24180.3 cm**-1 <S**2> =   0.000000 Mult 1
   238a -> 241a  :     0.919788 
   239a -> 242a  :     0.011071 
   240a -> 242a  :     0.042355 

STATE  4:  E=   0.112441 au      3.060 eV    24677.9 cm**-1 <S**2> =   0.000000 Mult 1
   235a -> 241a  :     0.011011 
   238a -> 241a  :     0.040544 
   239a -> 241a  :     0.182974 
   239a -> 243a  :     0.027852 
   240a -> 242a  :     0.702804 

STATE  5:  E=   0.117356 au      3.193 eV    25756.7 cm**-1 <S**2> =   0.000000 Mult 1
   237a -> 241a  :     0.867118 
   239a -> 242a  :     0.092165 

STATE  6:  E=   0.120195 au      3.271 eV    26379.7 cm**-1 <S**2> =   0.000000 Mult 1
   237a -> 241a  :     0.113553 
   239a -> 242a  :     0.750908 
   240a -> 241a  :     0.063831 
   240a -> 243a  :     0.032828 

STATE  7:  E=   0.132608 au      3.608 eV    29104.2 cm**-1 <S**2> =   0.000000 Mult 1
   233a -> 241a  :     0.038358 
   234a -> 241a  :     0.802719 
   234a -> 242a  :     0.020846 
   234a -> 243a  :     0.097292 

STATE  8:  E=   0.134392 au      3.657 eV    29495.7 cm**-1 <S**2> =   0.000000 Mult 1
   235a -> 241a  :     0.803888 
   240a -> 243a  :     0.152601 

STATE  9:  E=   0.136308 au      3.709 eV    29916.1 cm**-1 <S**2> =   0.000000 Mult 1
   235a -> 241a  :     0.148387 
   237a -> 242a  :     0.014041 
   239a -> 241a  :     0.014307 
   239a -> 242a  :     0.023706 
   240a -> 243a  :     0.775343 

STATE 10:  E=   0.139865 au      3.806 eV    30696.8 cm**-1 <S**2> =   0.000000 Mult 1
   237a -> 242a  :     0.456825 
   238a -> 242a  :     0.485128 
   239a -> 243a  :     0.023172 

STATE 11:  E=   0.144174 au      3.923 eV    31642.6 cm**-1 <S**2> =   0.000000 Mult 1
   236a -> 241a  :     0.030093 
   237a -> 242a  :     0.053753 
   239a -> 243a  :     0.827080 
   240a -> 242a  :     0.012873 
   240a -> 244a  :     0.023418 

STATE 12:  E=   0.144318 au      3.927 eV    31674.1 cm**-1 <S**2> =   0.000000 Mult 1
   236a -> 241a  :     0.958433 
   239a -> 243a  :     0.026926 

STATE 13:  E=   0.145659 au      3.964 eV    31968.5 cm**-1 <S**2> =   0.000000 Mult 1
   237a -> 242a  :     0.443472 
   238a -> 242a  :     0.478074 
   239a -> 243a  :     0.033699 
   240a -> 244a  :     0.018832 

STATE 14:  E=   0.150698 au      4.101 eV    33074.4 cm**-1 <S**2> =   0.000000 Mult 1
   232a -> 242a  :     0.026449 
   233a -> 241a  :     0.879490 
   234a -> 241a  :     0.047618 

STATE 15:  E=   0.154617 au      4.207 eV    33934.6 cm**-1 <S**2> =   0.000000 Mult 1
   229a -> 241a  :     0.039578 
   230a -> 241a  :     0.834488 
   231a -> 241a  :     0.041595 
   232a -> 241a  :     0.046148 

STATE 16:  E=   0.161831 au      4.404 eV    35517.8 cm**-1 <S**2> =   0.000000 Mult 1
   230a -> 241a  :     0.029586 
   232a -> 241a  :     0.718392 
   233a -> 242a  :     0.011716 
   235a -> 242a  :     0.014658 
   240a -> 244a  :     0.177470 

STATE 17:  E=   0.162604 au      4.425 eV    35687.4 cm**-1 <S**2> =   0.000000 Mult 1
   230a -> 241a  :     0.010955 
   232a -> 241a  :     0.175590 
   239a -> 243a  :     0.020499 
   240a -> 244a  :     0.749660 

STATE 18:  E=   0.167701 au      4.563 eV    36806.1 cm**-1 <S**2> =   0.000000 Mult 1
   232a -> 241a  :     0.016040 
   235a -> 242a  :     0.935231 
   240a -> 245a  :     0.015028 

STATE 19:  E=   0.171150 au      4.657 eV    37563.2 cm**-1 <S**2> =   0.000000 Mult 1
   235a -> 242a  :     0.017231 
   239a -> 244a  :     0.663757 
   239a -> 245a  :     0.014725 
   240a -> 245a  :     0.271605 

STATE 20:  E=   0.173309 au      4.716 eV    38036.9 cm**-1 <S**2> =   0.000000 Mult 1
   239a -> 244a  :     0.283604 
   239a -> 245a  :     0.029474 
   240a -> 245a  :     0.636090 
   240a -> 248a  :     0.011813 

STATE 21:  E=   0.175146 au      4.766 eV    38440.2 cm**-1 <S**2> =   0.000000 Mult 1
   225a -> 241a  :     0.088309 
   228a -> 241a  :     0.049070 
   229a -> 241a  :     0.032481 
   230a -> 242a  :     0.061363 
   234a -> 241a  :     0.028026 
   234a -> 242a  :     0.305711 
   234a -> 243a  :     0.026433 
   236a -> 242a  :     0.355412 

STATE 22:  E=   0.175860 au      4.785 eV    38596.8 cm**-1 <S**2> =   0.000000 Mult 1
   225a -> 241a  :     0.034642 
   228a -> 241a  :     0.044630 
   229a -> 241a  :     0.023937 
   234a -> 241a  :     0.023251 
   234a -> 242a  :     0.181527 
   234a -> 243a  :     0.039102 
   236a -> 242a  :     0.613742 

STATE 23:  E=   0.177253 au      4.823 eV    38902.6 cm**-1 <S**2> =   0.000000 Mult 1
   217a -> 241a  :     0.027323 
   224a -> 241a  :     0.021366 
   225a -> 241a  :     0.389111 
   229a -> 241a  :     0.151674 
   230a -> 241a  :     0.010469 
   230a -> 242a  :     0.057005 
   231a -> 241a  :     0.028929 
   234a -> 241a  :     0.023608 
   234a -> 242a  :     0.164700 
   234a -> 243a  :     0.056186 

STATE 24:  E=   0.178752 au      4.864 eV    39231.6 cm**-1 <S**2> =   0.000000 Mult 1
   224a -> 241a  :     0.022128 
   225a -> 241a  :     0.021607 
   228a -> 241a  :     0.608790 
   229a -> 241a  :     0.019446 
   234a -> 242a  :     0.069388 
   234a -> 243a  :     0.010060 
   240a -> 248a  :     0.180290 

STATE 25:  E=   0.178845 au      4.867 eV    39252.0 cm**-1 <S**2> =   0.000000 Mult 1
   228a -> 241a  :     0.160216 
   234a -> 242a  :     0.022874 
   240a -> 246a  :     0.036754 
   240a -> 247a  :     0.018323 
   240a -> 248a  :     0.712085 

STATE 26:  E=   0.179018 au      4.871 eV    39290.0 cm**-1 <S**2> =   0.000000 Mult 1
   216a -> 241a  :     0.016800 
   217a -> 241a  :     0.097192 
   224a -> 241a  :     0.156575 
   225a -> 241a  :     0.017046 
   229a -> 241a  :     0.147503 
   229a -> 242a  :     0.010713 
   230a -> 242a  :     0.155284 
   231a -> 241a  :     0.032464 
   234a -> 241a  :     0.013293 
   234a -> 242a  :     0.082389 
   234a -> 243a  :     0.168289 
   236a -> 242a  :     0.013503 
   238a -> 243a  :     0.012409 

STATE 27:  E=   0.181063 au      4.927 eV    39738.6 cm**-1 <S**2> =   0.000000 Mult 1
   224a -> 241a  :     0.016274 
   228a -> 241a  :     0.018125 
   233a -> 242a  :     0.319428 
   234a -> 241a  :     0.010502 
   234a -> 242a  :     0.016588 
   234a -> 243a  :     0.067289 
   238a -> 243a  :     0.466008 
   239a -> 245a  :     0.010912 

STATE 28:  E=   0.181782 au      4.947 eV    39896.6 cm**-1 <S**2> =   0.000000 Mult 1
   225a -> 241a  :     0.011638 
   229a -> 241a  :     0.019322 
   231a -> 241a  :     0.022824 
   233a -> 242a  :     0.337686 
   234a -> 242a  :     0.025994 
   234a -> 243a  :     0.048398 
   238a -> 243a  :     0.449567 

STATE 29:  E=   0.182715 au      4.972 eV    40101.3 cm**-1 <S**2> =   0.000000 Mult 1
   225a -> 241a  :     0.164376 
   228a -> 241a  :     0.011695 
   229a -> 241a  :     0.101189 
   231a -> 241a  :     0.448452 
   233a -> 242a  :     0.136836 
   234a -> 242a  :     0.015145 
   234a -> 243a  :     0.063494 

STATE 30:  E=   0.183079 au      4.982 eV    40181.2 cm**-1 <S**2> =   0.000000 Mult 1
   233a -> 242a  :     0.012400 
   237a -> 243a  :     0.010162 
   239a -> 245a  :     0.863092 
   239a -> 248a  :     0.014021 
   240a -> 245a  :     0.050209 
   240a -> 249a  :     0.010023 


-----------------------------
 TD-DFT-EXCITATION SPECTRA
-----------------------------

Center of mass = ( -0.0351, -0.0377, -0.2776)
Generating RPA transition densities
 done

----------------------------------------------------------------------------------------------------
                     ABSORPTION SPECTRUM VIA TRANSITION ELECTRIC DIPOLE MOMENTS    
----------------------------------------------------------------------------------------------------
     Transition      Energy     Energy  Wavelength fosc(D2)      D2        DX        DY        DZ   
                      (eV)      (cm-1)    (nm)                 (au**2)    (au)      (au)      (au)  
----------------------------------------------------------------------------------------------------
  0-1A  ->  1-1A    2.059723   16612.8   601.9   0.422265929   8.36795  -0.42331  -2.07650   1.96898
  0-1A  ->  2-1A    2.306589   18603.9   537.5   0.071986920   1.27387  -0.92967   0.63264   0.09666
  0-1A  ->  3-1A    2.997972   24180.3   413.6   0.038777636   0.52795  -0.48785  -0.13902   0.52022
  0-1A  ->  4-1A    3.059666   24677.9   405.2   0.889819314  11.87052  -2.93265   1.66806   0.69834
  0-1A  ->  5-1A    3.193420   25756.7   388.2   0.102324541   1.30787  -0.16900   0.94010  -0.62891
  0-1A  ->  6-1A    3.270664   26379.7   379.1   0.880357966  10.98665  -0.19921  -2.53820   2.12238
  0-1A  ->  7-1A    3.608457   29104.2   343.6   0.006326396   0.07156   0.22107  -0.14473   0.04175
  0-1A  ->  8-1A    3.657003   29495.7   339.0   0.063743914   0.71147   0.62698  -0.55865  -0.07918
  0-1A  ->  9-1A    3.709120   29916.1   334.3   0.201707161   2.21969  -1.08275   1.00429  -0.19685
  0-1A  -> 10-1A    3.805915   30696.8   325.8   0.024796794   0.26594   0.21400  -0.41592   0.21714
  0-1A  -> 11-1A    3.923177   31642.6   316.0   0.417490386   4.34361   1.30669   0.74226  -1.44403
  0-1A  -> 12-1A    3.927093   31674.1   315.7   0.008527040   0.08863   0.17516   0.08659  -0.22461
  0-1A  -> 13-1A    3.963585   31968.5   312.8   0.110065725   1.13346  -0.61127   0.80899  -0.32456
  0-1A  -> 14-1A    4.100703   33074.4   302.3   0.042234712   0.42039  -0.30285   0.55200  -0.15482
  0-1A  -> 15-1A    4.207353   33934.6   294.7   0.002087271   0.02025  -0.12352   0.04873   0.05116
  0-1A  -> 16-1A    4.403642   35517.8   281.5   0.056388983   0.52267  -0.23842  -0.36846   0.57450
  0-1A  -> 17-1A    4.424672   35687.4   280.2   0.213055761   1.96541   1.21281  -0.62848  -0.31547
  0-1A  -> 18-1A    4.563374   36806.1   271.7   0.041344056   0.36980  -0.45969  -0.07601   0.39078
  0-1A  -> 19-1A    4.657237   37563.2   266.2   0.099466260   0.87174   0.55128  -0.71554   0.23631
  0-1A  -> 20-1A    4.715977   38036.9   262.9   0.038845039   0.33621   0.47835  -0.31155  -0.10160
  0-1A  -> 21-1A    4.765974   38440.2   260.1   0.000988486   0.00847  -0.00289   0.08591  -0.03281
  0-1A  -> 22-1A    4.785390   38596.8   259.1   0.000649484   0.00554  -0.06804   0.03018  -0.00052
  0-1A  -> 23-1A    4.823304   38902.6   257.1   0.001287986   0.01090  -0.03171  -0.05316   0.08407
  0-1A  -> 24-1A    4.864101   39231.6   254.9   0.000792073   0.00665   0.05407  -0.02654  -0.05495
  0-1A  -> 25-1A    4.866630   39252.0   254.8   0.003235247   0.02713   0.13693  -0.09085   0.01140
  0-1A  -> 26-1A    4.871340   39290.0   254.5   0.000380046   0.00318  -0.01939   0.01115   0.05181
  0-1A  -> 27-1A    4.926964   39738.6   251.6   0.000559535   0.00464  -0.00027   0.06145   0.02932
  0-1A  -> 28-1A    4.946542   39896.6   250.6   0.004492291   0.03707   0.17624   0.07535  -0.01815
  0-1A  -> 29-1A    4.971933   40101.3   249.4   0.002725161   0.02237  -0.12067   0.08128   0.03469
  0-1A  -> 30-1A    4.981837   40181.2   248.9   0.019173348   0.15709  -0.29525   0.11147   0.23978

----------------------------------------------------------------------------------------------------
                     ABSORPTION SPECTRUM VIA TRANSITION VELOCITY DIPOLE MOMENTS    
----------------------------------------------------------------------------------------------------
     Transition      Energy     Energy  Wavelength fosc(P2)      P2        PX        PY        PZ   
                      (eV)      (cm-1)    (nm)                 (au**2)    (au)      (au)      (au)  
----------------------------------------------------------------------------------------------------
  0-1A  ->  1-1A    2.059723   16612.8   601.9   0.419288281   0.04761   0.03200   0.15648  -0.14865
  0-1A  ->  2-1A    2.306589   18603.9   537.5   0.072093049   0.00917   0.07891  -0.05359  -0.00827
  0-1A  ->  3-1A    2.997972   24180.3   413.6   0.038856724   0.00642   0.05406   0.01503  -0.05721
  0-1A  ->  4-1A    3.059666   24677.9   405.2   0.883605984   0.14903   0.32843  -0.18738  -0.07779
  0-1A  ->  5-1A    3.193420   25756.7   388.2   0.102470502   0.01804   0.01994  -0.11038   0.07387
  0-1A  ->  6-1A    3.270664   26379.7   379.1   0.876299083   0.15799   0.02419   0.30415  -0.25474
  0-1A  ->  7-1A    3.608457   29104.2   343.6   0.006330608   0.00126  -0.02923   0.01943  -0.00523
  0-1A  ->  8-1A    3.657003   29495.7   339.0   0.063164619   0.01273  -0.08402   0.07455   0.01078
  0-1A  ->  9-1A    3.709120   29916.1   334.3   0.201628154   0.04123   0.14776  -0.13666   0.02674
  0-1A  -> 10-1A    3.805915   30696.8   325.8   0.024658948   0.00517  -0.03022   0.05787  -0.03020
  0-1A  -> 11-1A    3.923177   31642.6   316.0   0.415451535   0.08985  -0.18813  -0.10664   0.20756
  0-1A  -> 12-1A    3.927093   31674.1   315.7   0.008478259   0.00184  -0.02523  -0.01247   0.03230
  0-1A  -> 13-1A    3.963585   31968.5   312.8   0.109078276   0.02383   0.08853  -0.11743   0.04697
  0-1A  -> 14-1A    4.100703   33074.4   302.3   0.042046010   0.00950   0.04530  -0.08307   0.02348
  0-1A  -> 15-1A    4.207353   33934.6   294.7   0.002126732   0.00049   0.01933  -0.00755  -0.00790
  0-1A  -> 16-1A    4.403642   35517.8   281.5   0.056091944   0.01362   0.03864   0.05938  -0.09272
  0-1A  -> 17-1A    4.424672   35687.4   280.2   0.212609999   0.05186  -0.19711   0.10186   0.05128
  0-1A  -> 18-1A    4.563374   36806.1   271.7   0.041498806   0.01044   0.07719   0.01299  -0.06566
  0-1A  -> 19-1A    4.657237   37563.2   266.2   0.098835536   0.02537  -0.09437   0.12184  -0.04029
  0-1A  -> 20-1A    4.715977   38036.9   262.9   0.039204430   0.01019  -0.08340   0.05401   0.01789
  0-1A  -> 21-1A    4.765974   38440.2   260.1   0.000999693   0.00026   0.00028  -0.01514   0.00579
  0-1A  -> 22-1A    4.785390   38596.8   259.1   0.000641847   0.00017   0.01183  -0.00542   0.00014
  0-1A  -> 23-1A    4.823304   38902.6   257.1   0.001295083   0.00034   0.00608   0.00985  -0.01450
  0-1A  -> 24-1A    4.864101   39231.6   254.9   0.000847618   0.00023  -0.01028   0.00460   0.01002
  0-1A  -> 25-1A    4.866630   39252.0   254.8   0.003131183   0.00084  -0.02438   0.01551  -0.00224
  0-1A  -> 26-1A    4.871340   39290.0   254.5   0.000392254   0.00011   0.00306  -0.00220  -0.00955
  0-1A  -> 27-1A    4.926964   39738.6   251.6   0.000552982   0.00015   0.00002  -0.01127  -0.00481
  0-1A  -> 28-1A    4.946542   39896.6   250.6   0.004419282   0.00121  -0.03183  -0.01346   0.00329
  0-1A  -> 29-1A    4.971933   40101.3   249.4   0.002725739   0.00075   0.02192  -0.01491  -0.00666
  0-1A  -> 30-1A    4.981837   40181.2   248.9   0.019237362   0.00528   0.05387  -0.02075  -0.04416

------------------------------------------------------------------------------------------
                     CD SPECTRUM VIA TRANSITION ELECTRIC DIPOLE MOMENTS    
------------------------------------------------------------------------------------------
     Transition      Energy     Energy  Wavelength    R        MX        MY        MZ   
                      (eV)      (cm-1)    (nm)   (1e40*cgs)   (au)      (au)      (au)  
------------------------------------------------------------------------------------------
  0-1A  ->  1-1A    2.059723   16612.8   601.9   -9.66264   0.45010   1.31417   1.49312
  0-1A  ->  2-1A    2.306589   18603.9   537.5    2.34750   0.16162   0.23558  -0.03899
  0-1A  ->  3-1A    2.997972   24180.3   413.6   24.00242  -0.10821   0.17088  -0.15368
  0-1A  ->  4-1A    3.059666   24677.9   405.2   31.04343   0.17818   0.61407  -0.81280
  0-1A  ->  5-1A    3.193420   25756.7   388.2   -2.95560   0.09060  -0.27548  -0.44610
  0-1A  ->  6-1A    3.270664   26379.7   379.1   13.71063   0.26226   1.67514   2.01425
  0-1A  ->  7-1A    3.608457   29104.2   343.6  -22.77222   0.00423  -0.23767   0.31065
  0-1A  ->  8-1A    3.657003   29495.7   339.0   15.16562   0.18028   0.16827   0.64660
  0-1A  ->  9-1A    3.709120   29916.1   334.3    3.49324  -0.04369  -0.22142  -0.85175
  0-1A  -> 10-1A    3.805915   30696.8   325.8   -3.62032   0.32885   0.58748   0.83655
  0-1A  -> 11-1A    3.923177   31642.6   316.0   66.71953  -0.05281  -1.13211  -0.53172
  0-1A  -> 12-1A    3.927093   31674.1   315.7   -2.32732  -0.01530  -0.18942  -0.10693
  0-1A  -> 13-1A    3.963585   31968.5   312.8   -1.84602  -0.09595  -0.37101  -0.75613
  0-1A  -> 14-1A    4.100703   33074.4   302.3   -1.80693   0.15180   0.02075  -0.24774
  0-1A  -> 15-1A    4.207353   33934.6   294.7    4.41389   0.06764   0.14993  -0.16250
  0-1A  -> 16-1A    4.403642   35517.8   281.5   15.76634  -0.04087   0.41105   0.18846
  0-1A  -> 17-1A    4.424672   35687.4   280.2   -7.45366  -0.10128  -0.40718   0.37169
  0-1A  -> 18-1A    4.563374   36806.1   271.7    6.78028  -0.02157   0.32455   0.00095
  0-1A  -> 19-1A    4.657237   37563.2   266.2    4.53228  -0.12911   0.10906   0.59078
  0-1A  -> 20-1A    4.715977   38036.9   262.9    7.63881  -0.01508  -0.07848   0.32916
  0-1A  -> 21-1A    4.765974   38440.2   260.1    3.28034  -0.06190  -0.08513  -0.00539
  0-1A  -> 22-1A    4.785390   38596.8   259.1    0.12097  -0.03287  -0.08240   0.01262
  0-1A  -> 23-1A    4.823304   38902.6   257.1   -8.28178  -0.00019  -0.08525   0.15497
  0-1A  -> 24-1A    4.864101   39231.6   254.9    3.06149   0.05627   0.03801   0.15520
  0-1A  -> 25-1A    4.866630   39252.0   254.8   -3.52831   0.08282   0.05533   0.10262
  0-1A  -> 26-1A    4.871340   39290.0   254.5    1.42768  -0.00897  -0.14899  -0.02974
  0-1A  -> 27-1A    4.926964   39738.6   251.6   -2.65413   0.05927   0.01543   0.16022
  0-1A  -> 28-1A    4.946542   39896.6   250.6   16.71489  -0.12782  -0.23567  -0.26617
  0-1A  -> 29-1A    4.971933   40101.3   249.4    1.13068  -0.01579  -0.03694  -0.03751
  0-1A  -> 30-1A    4.981837   40181.2   248.9  -17.76527  -0.06156   0.29597  -0.05624

------------------------------------------------------------------------------------------
                     CD SPECTRUM VIA TRANSITION VELOCITY DIPOLE MOMENTS    
------------------------------------------------------------------------------------------
     Transition      Energy     Energy  Wavelength    R        MX        MY        MZ   
                      (eV)      (cm-1)    (nm)   (1e40*cgs)   (au)      (au)      (au)  
------------------------------------------------------------------------------------------
  0-1A  ->  1-1A    2.059723   16612.8   601.9  -11.88701   0.45010   1.31417   1.49312
  0-1A  ->  2-1A    2.306589   18603.9   537.5    2.50256   0.16162   0.23558  -0.03899
  0-1A  ->  3-1A    2.997972   24180.3   413.6   23.58174  -0.10821   0.17088  -0.15368
  0-1A  ->  4-1A    3.059666   24677.9   405.2   28.02072   0.17818   0.61407  -0.81280
  0-1A  ->  5-1A    3.193420   25756.7   388.2   -2.97785   0.09060  -0.27548  -0.44610
  0-1A  ->  6-1A    3.270664   26379.7   379.1   10.68968   0.26226   1.67514   2.01425
  0-1A  ->  7-1A    3.608457   29104.2   343.6  -22.63008   0.00423  -0.23767   0.31065
  0-1A  ->  8-1A    3.657003   29495.7   339.0   15.31304   0.18028   0.16827   0.64660
  0-1A  ->  9-1A    3.709120   29916.1   334.3    3.57384  -0.04369  -0.22142  -0.85175
  0-1A  -> 10-1A    3.805915   30696.8   325.8   -4.05965   0.32885   0.58748   0.83655
  0-1A  -> 11-1A    3.923177   31642.6   316.0   66.38230  -0.05281  -1.13211  -0.53172
  0-1A  -> 12-1A    3.927093   31674.1   315.7   -2.30623  -0.01530  -0.18942  -0.10693
  0-1A  -> 13-1A    3.963585   31968.5   312.8   -1.42818  -0.09595  -0.37101  -0.75613
  0-1A  -> 14-1A    4.100703   33074.4   302.3   -2.07174   0.15180   0.02075  -0.24774
  0-1A  -> 15-1A    4.207353   33934.6   294.7    4.45297   0.06764   0.14993  -0.16250
  0-1A  -> 16-1A    4.403642   35517.8   281.5   15.60260  -0.04087   0.41105   0.18846
  0-1A  -> 17-1A    4.424672   35687.4   280.2   -7.10614  -0.10128  -0.40718   0.37169
  0-1A  -> 18-1A    4.563374   36806.1   271.7    6.99890  -0.02157   0.32455   0.00095
  0-1A  -> 19-1A    4.657237   37563.2   266.2    4.59893  -0.12911   0.10906   0.59078
  0-1A  -> 20-1A    4.715977   38036.9   262.9    7.90572  -0.01508  -0.07848   0.32916
  0-1A  -> 21-1A    4.765974   38440.2   260.1    3.33826  -0.06190  -0.08513  -0.00539
  0-1A  -> 22-1A    4.785390   38596.8   259.1    0.15985  -0.03287  -0.08240   0.01262
  0-1A  -> 23-1A    4.823304   38902.6   257.1   -8.21420  -0.00019  -0.08525   0.15497
  0-1A  -> 24-1A    4.864101   39231.6   254.9    3.03620   0.05627   0.03801   0.15520
  0-1A  -> 25-1A    4.866630   39252.0   254.8   -3.66781   0.08282   0.05533   0.10262
  0-1A  -> 26-1A    4.871340   39290.0   254.5    1.53860  -0.00897  -0.14899  -0.02974
  0-1A  -> 27-1A    4.926964   39738.6   251.6   -2.45792   0.05927   0.01543   0.16022
  0-1A  -> 28-1A    4.946542   39896.6   250.6   16.50517  -0.12782  -0.23567  -0.26617
  0-1A  -> 29-1A    4.971933   40101.3   249.4    1.17272  -0.01579  -0.03694  -0.03751
  0-1A  -> 30-1A    4.981837   40181.2   248.9  -17.96315  -0.06156   0.29597  -0.05624

Total run time:    55764.905 sec

           *** ORCA-CIS/TD-DFT FINISHED WITHOUT ERROR ***
-----------------------
CIS/TD-DFT TOTAL ENERGY
-----------------------

    E(SCF)  =  -2932.333884618 Eh
    DE(CIS) =      0.075693427 Eh (Root  1)
    ----------------------------- ---------
    E(tot)  =  -2932.258191191 Eh


Maximum memory used throughout the entire CIS-calculation: 1734.4 MB
=> NOW LEAVING ORCA_CIS

-------------------------   --------------------
FINAL SINGLE POINT ENERGY     -2932.258191191208
-------------------------   --------------------



           ************************************************************
           *        Program running with 4 parallel MPI-processes     *
           *              working on a common directory               *
           ************************************************************

------------------------------------------------------------------------------
                              ORCA PROPERTY CALCULATIONS
------------------------------------------------------------------------------

GBWName                                 ... tddft.gbw
Number of atoms                         ...    137
Number of basis functions               ...   2448
Max core memory                         ...   2200 MB

Electric properties:
Dipole moment                           ... YES
Quadrupole moment                       ...  NO
Static polarizability (Dipole/Dipole)   ...  NO
Static polarizability (Dipole/Quad.)    ...  NO
Static polarizability (Quad./Quad.)     ...  NO
Static polarizability (Velocity)        ...  NO
Static hyperpolarizability              ...  NO

Atomic electric properties:
Dipole moment                           ...  NO
Quadrupole moment                       ...  NO
Static polarizability                   ...  NO

Choice of electric origin               ... Center of mass
Position of electric origin             ...    -0.035095    -0.037699    -0.277632

General magnetic properties:
Magnetizability                         ...  NO

EPR properties:
g-Tensor (aka g-matrix)                 ...  NO
Zero-Field splitting spin-orbit         ...  NO
Zero-field splitting spin-spin          ...  NO
Hyperfine couplings                     ...  NO (   0 nuclei)
Quadrupole couplings                    ...  NO (   0 nuclei)
Contact density                         ...  NO (   0 nuclei)

NMR properties:
Chemical shifts                         ...  NO (   0 nuclei)
Spin-rotation constants                 ...  NO (   0 nuclei)
Spin-spin couplings                     ...  NO (   0 nuclei,    0 pairs)

Choice of magnetic origin               ... GIAO
Position of magnetic origin             ...     0.000000     0.000000     0.000000

Properties with geometric perturbations:
SCF Hessian                             ...  NO
IR spectrum                             ...  NO
VCD spectrum                            ...  NO
X-ray spectroscopy properties:
SCF XES/XAS/RIXS spectra                ...  NO

SCF SOC stabilization energy            ...  NO
Diagonal Born-Oppenheimer correction    ...  NO

-------------
DIPOLE MOMENT
-------------

Method             : SCF
Type of density    : Electron Density
Multiplicity       :   1
Irrep              :   0
Energy             : -2932.3338846179181019 Eh
Basis              : AO
                                X                 Y                 Z
Electronic contribution:    281.263791548      20.756368811     -19.452438978
Nuclear contribution   :   -282.757873404     -22.950399894      21.290669736
                        -----------------------------------------
Total Dipole Moment    :     -1.494081857      -2.194031083       1.838230759
                        -----------------------------------------
Magnitude (a.u.)       :      3.228799360
Magnitude (Debye)      :      8.206955756



--------------------
Rotational spectrum 
--------------------
 
Rotational constants in cm-1:             0.001822             0.000215             0.000199 
Rotational constants in MHz :            54.623989             6.434735             5.973951 

Dipole components along the rotational axes: 
x,y,z [a.u.] :     1.581810     2.782769    -0.423344 
x,y,z [Debye]:     4.020641     7.073237    -1.076054 

 

Dipole moment calculation done in   0.3 sec 

Maximum memory used throughout the entire PROP-calculation: 402.3 MB

--------------------------------
SUGGESTED CITATIONS FOR THIS RUN
--------------------------------

Below you find a list of papers that are relevant to this ORCA run
We neither can nor want to force you to cite these papers, but we appreciate if you do
You receive ORCA, which is the product of decades of hard work by many enthusiastic individuals, for free
The only thing we kindly ask in return is that you cite our papers,
We deeply appreciate it, if you show your appreciation for ORCA by not just citing the generic ORCA reference.

Please note that relegating all ORCA citations to the supporting information does *not* help us.
SI sections are not indexed - citations you put there will not count into any citation statistics
But we need these citations in order to attract the funding resources that allow us to do what we are doing

Therefore, if you are a happy ORCA user, please consider citing a few of the papers listed below in the main body of your paper

In addition to the list printed below, the program has created the file tddft.bibtex that contains the list in bibtex format
You can import this file easily into all common literature databanks and citation aid programs

It goes without saying that in many instances, there are alternative algorithms to achieve similar
results as the ones you have gotten from ORCA. It is, of course, also the case that in some instances
ORCA just re-implements algorithms worked out by others. We are fully aware of that and we are also
fully appreciative of our colleagues work. Hence this citation list should not be read as indicating
that the listed papers, which are focused on our own work, are the only ones worth citing. It simply
meant to make it easier for users to cite ORCA specific papers. It is not a substitute for doing your
own literature research and citing the relevant literature in a scientifically appropriate manner.

List of essential papers. We consider these as the minimum necessary citations

  1. Neese, F.
     Software update: the ORCA program system, version 6.0
     WIRES Comput. Molec. Sci. 2025 15(1), e70019
     doi.org/10.1002/wcms.70019

List of papers to cite with high priority. The work reported in these papers was absolutely
necessary for this run to complete.
Our perspective: the developers of density functionals and basis sets usually get cited in chemistry papers
Good! But without the algorithms to do something with them, the functionals or basis sets would not do anything.
Hence, in our opinion, the algorithm design and method developments papers are equally worthy of getting cited

  1. Neese, F.; Olbrich, G.
     Efficient use of the resolution of the identity approximation in time-dependent density functional calculations with hybrid density functionals
     Chem. Phys. Lett. 2002 362 , 170-178
     doi.org/10.1016/s0009-2614(02)01053-9
  2. Neese, F.
     An improvement of the resolution of the identity approximation for the formation of the Coulomb matrix
     J. Comp. Chem. 2003 24(14), 1740-1747
     doi.org/10.1002/jcc.10318
  3. Neese, F.; Wennmohs, F.; Hansen, A.; Becker, U.
     Efficient, approximate and parallel Hartree-Fock and hybrid DFT calculations. A 'chain-of-spheres' algorithm for the Hartree-Fock exchange
     Chem. Phys. 2009 356(1-3), 98-109
     doi.org/10.1016/j.chemphys.2008.10.036
  4. Garcia-Rates, M.; Neese, F.
     Effect of the Solute Cavity on the Solvation Energy and its Derivatives within the Framework of the Gaussian Charge Scheme
     J. Comput. Chem. 2020 41 , 922-939
     doi.org/10.1002/jcc.26139
  5. Helmich-Paris, B.; de Souza, B.; Neese, F.; Izsák, R.
     An improved chain of spheres for exchange algorithm
     J. Chem. Phys. 2021 155(10), 104109
     doi.org/10.1063/5.0058766
  6. Neese, F.
     The SHARK Integral Generation and Digestion System
     J. Comp. Chem. 2022 44(3), 381
     doi.org/10.1002/jcc.26942

List of suggested additional citations. These are papers that are important in the 'surrounding' of 
of this run, or papers that preceded the highly important papers. If you like your results we are grateful for a citation.

  1. Izsak, R.; Neese, F.
     An overlap fitted chain of spheres exchange method
     J. Chem. Phys. 2011 135 , 144105
     doi.org/10.1063/1.3646921
  2. Izsak, R.; Hansen, A.; Neese, F.
     The resolution of identity and chain of spheres approximations for the LPNO-CCSD singles Fock term
     Molec. Phys. 2012 110 , 2413-2417
     doi.org/10.1080/00268976.2012.687466
  3. Neese, F.
     The ORCA program system
     WIRES Comput. Molec. Sci. 2012 2(1), 73-78
     doi.org/10.1002/wcms.81
  4. Izsak, R.; Neese, F.; Klopper, W.
     Robust fitting techniques in the chain of spheres approximation to the Fock exchange: The role of the complementary space
     J. Chem. Phys. 2013 139 , 
     doi.org/10.1063/1.4819264
  5. Neese, F.
     Software update: the ORCA program system, version 4.0
     WIRES Comput. Molec. Sci. 2018 8(1), 1-6
     doi.org/10.1002/wcms.1327
  6. Neese, F.; Wennmohs, F.; Becker, U.; Riplinger, C.
     The ORCA quantum chemistry program package
     J. Chem. Phys. 2020 152(22), 224108
     doi.org/10.1063/5.0004608
  7. Neese, F.
     Software update: The ORCA program system—Version 5.0
     WIRES Comput. Molec. Sci. 2022 12(1), e1606
     doi.org/10.1002/wcms.1606

List of optional additional citations

  1. Neese, F.
     Approximate second-order SCF convergence for spin unrestricted wavefunctions
     Chem. Phys. Lett. 2000 325(1-3), 93-98
     doi.org/10.1016/s0009-2614(00)00662-x

Timings for individual modules:

Sum of individual times          ...    62867.068 sec (=1047.784 min)
Startup calculation              ...       82.641 sec (=   1.377 min)   0.1 %
SCF iterations                   ...     7012.731 sec (= 116.879 min)  11.2 %
Property integrals               ...        4.334 sec (=   0.072 min)   0.0 %
Property calculations            ...        1.777 sec (=   0.030 min)   0.0 %
CIS module                       ...    55765.584 sec (= 929.426 min)  88.7 %
                             ****ORCA TERMINATED NORMALLY****
TOTAL RUN TIME: 0 days 17 hours 27 minutes 47 seconds 628 msec
