
                                 *****************
                                 * O   R   C   A *
                                 *****************

                                            #,                                       
                                            ###                                      
                                            ####                                     
                                            #####                                    
                                            ######                                   
                                           ########,                                 
                                     ,,################,,,,,                         
                               ,,#################################,,                 
                          ,,##########################################,,             
                       ,#########################################, ''#####,          
                    ,#############################################,,   '####,        
                  ,##################################################,,,,####,       
                ,###########''''           ''''###############################       
              ,#####''   ,,,,##########,,,,          '''####'''          '####       
            ,##' ,,,,###########################,,,                        '##       
           ' ,,###''''                  '''############,,,                           
         ,,##''                                '''############,,,,        ,,,,,,###''
      ,#''                                            '''#######################'''  
     '                                                          ''''####''''         
             ,#######,   #######,   ,#######,      ##                                
            ,#'     '#,  ##    ##  ,#'     '#,    #''#        ,####,    ,#,          
            ##       ##  ##   ,#'  ##            #'  '#       #'       ,# #          
            ##       ##  #######   ##           ,######,      #####,      #          
            '#,     ,#'  ##    ##  '#,     ,#' ,#      #,     #,   #      #          
             '#######'   ##     ##  '#######'  #'      '#     '####' #    #          



                #########################################################
                #                        -***-                          #
                #          Department of theory and spectroscopy        #
                #                                                       #
                #                      Frank Neese                      #
                #                                                       #
                #     Directorship, Architecture, Infrastructure        #
                #                    SHARK, DRIVERS                     #
                #        Core code/Algorithms in most modules           #
                #                                                       #
                #        Max Planck Institute fuer Kohlenforschung      #
                #                Kaiser Wilhelm Platz 1                 #
                #                 D-45470 Muelheim/Ruhr                 #
                #                      Germany                          #
                #                                                       #
                #                  All rights reserved                  #
                #                        -***-                          #
                #########################################################


                         Program Version 6.1.1  -  RELEASE   -
                                (GIT: $487d211c$)
                          ($2025-11-21 10:33:24 +0100$)


 With contributions from (in alphabetic order):
[Max-Planck-Institut fuer Kohlenforschung]                               
  Daniel Aravena         : Magnetic Suceptibility                        
  Michael Atanasov       : Ab Initio Ligand Field Theory (pilot matlab implementation)
  Alexander A. Auer      : GIAO ZORA, VPT2 properties, NMR spectrum      
  Ute Becker             : All parallelization in ORCA, NUMFREQ, NUMCALC 
  Giovanni Bistoni       : ED, misc. LED, open-shell LED, HFLD           
  Dmytro Bykov           : pre 5.0 version of the SCF Hessian            
  Marcos Casanova-Páez   : Triplet and SCS-CIS(D). UHF-(DLPNO)-IP/EA/STEOM-CCSD. UHF-CVS-IP/STEOM-CCSD   
  Vijay G. Chilkuri      : MRCI spin determinant printing, contributions to CSF-ICE 
  Pauline Colinet        : FMM embedding                                 
  Dipayan Datta          : RHF DLPNO-CCSD density                        
  Achintya Kumar Dutta   : EOM-CC, STEOM-CC                              
  Nicolas Foglia         : Exact transition moments, OPA infrastructure, MCD improvements    
  Dmitry Ganyushin       : Spin-Orbit,Spin-Spin,Magnetic field MRCI      
  Miquel Garcia-Rates    : C-PCM and meta-GGA Hessian, CCSD/C-PCM, Gaussian charge scheme 
  Tiago L. C. Gouveia    : GS-ROHF, GS-ROCIS                             
  Yang Guo               : DLPNO-NEVPT2, F12-NEVPT2, CIM, IAO-localization        
  Andreas Hansen         : Spin unrestricted coupled pair/coupled cluster methods 
  Ingolf Harden          : AUTO-CI MPn and infrastructure                
  Benjamin Helmich-Paris : MC-RPA, TRAH-(SCF,CASSCF), AVAS, COSX integrals, SCF dyn. polar., MC-PDFT, srDFT 
  Lee Huntington         : MR-EOM, pCC                                   
  Robert Izsak           : Overlap fitted RIJCOSX, COSX-SCS-MP3, EOM     
  Riya Kayal             : Wick's Theorem for AUTO-CI, AUTO-CI UHF-CCSDT 
  Emily Kempfer          : AUTO-CI RHF CISDT and CCSDT, approximate NEVPT4
  Christian Kollmar      : KDIIS, OOCD, Brueckner-CCSD(T), CCSD density, CASPT2, CASPT2-K, improved NEVPT2 
  Axel Koslowski         : Symmetry handling                             
  Simone Kossmann        : meta-GGA functionals, TD-DFT gradient, OOMP2, (MP2 Hessian; deprecated post 5.0) 
  Lucas Lang             : DCDCAS, Hyperfine gauge corrections, ICE-SOC+SSC
  Marvin Lechner         : AUTO-CI (C++ implementation), FIC-MRCC        
  Spencer Leger          : CASSCF response                               
  Dagmar Lenk            : GEPOL surface, SMD, ORCA-2-JSON               
  Dimitrios Liakos       : Extrapolation schemes; Compound Job, Property file
  Dimitrios Manganas     : Further ROCIS development; embedding schemes. LFT, Crystal Embedding 
  Dimitrios Pantazis     : SARC Basis sets                               
  Anastasios Papadopoulos: AUTO-CI, single reference methods and gradients 
  Taras Petrenko         : pre 6.0 DFT Hessian and TD-DFT gradient,  ECA, NRVS 
  Petra Pikulova         : Analytic Raman intensities                    
  Peter Pinski           : DLPNO-MP2, DLPNO-MP2 Gradient                 
  Shashank Vittal Rao    : ES-AILFT, MagRelax                            
  Christoph Reimann      : Effective Core Potentials                     
  Marius Retegan         : Local ZFS, SOC                                
  Christoph Riplinger    : Optimizer, TS searches, QM/MM, DLPNO-CCSD(T), (RO)-DLPNO pert. Triples 
  Michael Roemelt        : Original ROCIS implementation, recursive CI coupling coefficients
  Masaaki Saitow         : Open-shell DLPNO-CCSD energy and density      
  Barbara Sandhoefer     : DKH picture change effects                    
  Yorick L. A. Schmerwitz: GMF and freeze-and-release deltaSCF, NEB S-IDPP initial path                    
  Kantharuban Sivalingam : CASSCF convergence/infrastructure, NEVPT2, NEVPT3, NEVPT4(SD), FIC-MRCI and CEPA variants
  Bernardo de Souza      : ESD, SOC TD-DFT                               
  Georgi L. Stoychev     : AutoAux, RI-MP2 NMR, DLPNO-MP2 response, X2C  
  Van Anh Tran           : RI-MP2 g-tensors                              
  Willem Van den Heuvel  : Paramagnetic NMR                              
  Zikuan Wang            : NOTCH, Electric field optimization            
  Frank Wennmohs         : Technical directorship and infrastructure     
  Hang Xu                : AUTO-CI-Response properties                   
                                                                         
[FACCTs GmbH]                                                            
  Markus Bursch, Nicolas Foglia, Miquel Garcia-Rates, Ingolf Harden, Hagen Neugebauer, Anastasios Papadopoulos, 
  Christoph Riplinger, Bernardo de Souza, Georgi L. Stoychev                                                    
                                                                 
  APM, various basis sets, CI-OPT, improved COSX, DLPNO-Multilevel,           
  DOCKER, DRACO, updates on ESD, Fragmentator, GOAT, IRC, LR-CPCM, L-BFGS, MBIS, meta-GGA TD-DFT gradient, ML-optimized integration grids, 
  MM, NACMEs, nearIR, NEB, NEB-TS, NL-DFT gradient (VV10), 2- and 3-layer-ONIOM, interface openCOSMO-RS, QMMM,   
  Crystal-QMMM, RESP, rigid body optimization, SF, symmetry and pop. for TD-DFT, various functionals, SOLVATOR                                   
                                                                         
[Other institutions]                                                     
  V. Asgeirsson          : NEB                                           
  Christoph Bannwarth    : sTDA-DFT, sTD-DFT, PBEh-3c, B97-3c, D3        
  Giovanni Bistoni       : ETS/NOCV, ADLD/ADEX, COVALED                  
  Martin Brehm           : Molecular dynamics                            
  Ronald Cardenas        : ETS/NOCV                                      
  Martina Colucci        : COVALED                                       
  Sebastian Ehlert       : rSCAN, r2SCAN, r2SCAN-3c, D4, dhf basis sets  
  Marvin Friede          : D4 for Fr, Ra, Ac-Lr                          
  Lars Goerigk           : TD-DFT with DH, B97 family of functionals     
  Stefan Grimme          : VdW corrections, initial TS optimization, DFT functionals, gCP, sTDA/sTD-DF 
  Waldemar Hujo          : DFT-NL                                        
  H. Jonsson             : NEB                                           
  Holger Kruse           : gCP                                           
  Marcel Mueller         : wB97X-3c, vDZP basis set                      
  Hagen Neugebauer       : wr2SCAN, Native XTB                           
  Gianluca Regni         : ADLD/ADEX                                     
  Tobias Risthaus        : pre 6.0 range-separated hybrid DFT and stability analysis
  Lukas Wittmann         : regularized MP2, r2SCAN double-hybrids, wr2SCAN        
                                                                         
We gratefully acknowledge several colleagues who have allowed us to      
interface, adapt or use parts of their codes:                            
  Ed Valeev, F. Pavosevic, A. Kumar             : LibInt (2-el integral package), F12 methods 
  Garnet Chan, S. Sharma, J. Yang, R. Olivares  : DMRG                   
  Ulf Ekstrom                                   : XCFun DFT Library      
  Mihaly Kallay                                 : mrcc  (arbitrary order and MRCC methods)
  Frank Weinhold                                : gennbo (NPA and NBO analysis)           
  Simon Mueller                                 : openCOSMO-RS                            
  Christopher J. Cramer and Donald G. Truhlar   : smd solvation model                     
  S Lehtola, MJT Oliveira, MAL Marques          : LibXC Library                           
  Liviu Ungur et al                             : ANISO software                          


 Your calculation uses the libint2 library for the computation of 2-el integrals
 For citations please refer to: http://libint.valeyev.net

 Your ORCA version has been built with support for libXC version: 7.0.0
 For citations please refer to: https://libxc.gitlab.io

 This ORCA versions uses:
   CBLAS   interface :  Fast vector & matrix operations
   LAPACKE interface :  Fast linear algebra routines
   SCALAPACK package :  Parallel linear algebra routines
   Shared memory     :  Shared parallel matrices
   BLAS/LAPACK       :  OpenBLAS 0.3.29  USE64BITINT DYNAMIC_ARCH NO_AFFINITY Haswell SINGLE_THREADED
        Core in use  :  Haswell
   Copyright (c) 2011-2014, The OpenBLAS Project


  ***********************************
  * Starting time: Tue Aug  4 20:01:00 2026
  * Host name:     steezy
  * Process ID:    1450354
  * Working dir.:  /home/jannes/chlorophyll-ladder/011-chlorophyll-a-truncation/chlorophyll_a/02_tddft_ch2cl2/camb3lyp
  ***********************************

NOTE: MaxCore=2200 MB was set to SCF,MP2,MDCI,CIPSI,MRCI,RASCI and CIS
      => If you want to overwrite this, your respective input block should be placed after the MaxCore statement


***************************************
The coordinates will be read from file: /home/jannes/chlorophyll-ladder/011-chlorophyll-a-truncation/chlorophyll_a/01_opt/chlorophyll_a_opt_b3lypd4_tzvp.xyz
***************************************


XCFun DFT library Copyright 2009-2010 Ulf Ekstrom and contributors.
See http://admol.org/xcfun for more information.
This is free software; see the source code for copying conditions.
There is ABSOLUTELY NO WARRANTY; not even for MERCHANTABILITY or FITNESS FOR A PARTICULAR PURPOSE.
For details see the documentation.
Scientific users of this library should cite U. Ekstrom, L. Visscher, R. Bast, A. J. Thorvaldsen and K. Ruud;
J.Chem.Theor.Comp. 2010, DOI: 10.1021/ct100117s
XCFun Version 0.99 

================================================================================

----- Orbital basis set information -----
Your calculation utilizes the basis: def2-TZVP
   F. Weigend and R. Ahlrichs, Phys. Chem. Chem. Phys. 7, 3297 (2005).

----- AuxJ basis set information -----
Your calculation utilizes the auxiliary basis: def2/J
   H-Rn: F. Weigend, Phys. Chem. Chem. Phys. 8, 1057 (2006).
   Fr-Lr: K. Eichkorn, F. Weigend, O. Treutler, R. Ahlrichs; Theor. Chem. Acc. 97, 119 (1997).

================================================================================
                                        WARNINGS
                       Please study these warnings very carefully!
================================================================================


WARNING: CIS/ROCIS methods need fully converged wavefunctions
  ===> : Setting SCFConvForced true
         You can overwrite this default with %scf ConvForced false 


================================================================================
                                       INPUT FILE
================================================================================
NAME = tddft.inp
|  1> %pal nprocs 4 end
|  2> %maxcore 2200
|  3> ! CAM-B3LYP def2-TZVP def2/J RIJCOSX DefGrid3 TightSCF CPCM(CH2Cl2)
|  4> %tddft
|  5>   nroots 30
|  6>   tda false
|  7>   triplets false
|  8> end
|  9> * xyzfile 0 1 /home/jannes/chlorophyll-ladder/011-chlorophyll-a-truncation/chlorophyll_a/01_opt/chlorophyll_a_opt_b3lypd4_tzvp.xyz
| 10> 
| 11>                          ****END OF INPUT****
================================================================================

                       ****************************
                       * Single Point Calculation *
                       ****************************

---------------------------------
CARTESIAN COORDINATES (ANGSTROEM)
---------------------------------
  Mg     6.479325   -0.856669   -0.022650
  C      4.824863    1.926725   -1.189190
  C      3.967350   -1.366492    2.202749
  C      8.090452   -3.624777    1.054701
  C      9.073893   -0.194301   -2.228311
  N      4.645023    0.146951    0.413537
  C      4.144979    1.264153   -0.200884
  C      2.779482    1.623969    0.337808
  C      2.687618    0.748333    1.605681
  C      3.820053   -0.243921    1.407761
  C      2.873454    1.552508    2.896797
  C      1.677792    1.333722   -0.691271
  C      0.306476    1.810696   -0.228119
  C     -0.769972    1.581641   -1.264377
  O     -0.573019    1.401751   -2.440156
  O     -1.993543    1.617502   -0.708764
  N      6.084936   -2.259084    1.368503
  C      5.000951   -2.314628    2.185715
  C      5.080945   -3.478347    3.040170
  C      6.254803   -4.120714    2.718156
  C      6.877407   -3.343460    1.658588
  C      4.047146   -3.889520    4.032602
  C      6.814799   -5.345299    3.260172
  C      6.601048   -5.861764    4.473553
  N      8.263879   -1.751213   -0.508417
  C      8.744574   -2.893584    0.050367
  C     10.021398   -3.234476   -0.531017
  C     10.302273   -2.260841   -1.454599
  C      9.190811   -1.336347   -1.433566
  C     10.839407   -4.431219   -0.173262
  C     11.485972   -2.175745   -2.364258
  C     11.239280   -2.841239   -3.725492
  N      6.899588    0.527206   -1.412075
  C      8.008028    0.699564   -2.234592
  C      7.850223    1.892237   -3.035077
  C      6.619003    2.411007   -2.660494
  C      6.084962    1.545039   -1.675539
  C      8.815929    2.431750   -4.032965
  C      5.678985    3.497729   -2.885831
  O      5.745774    4.461750   -3.609447
  C      4.431100    3.184148   -1.942329
  C      4.160810    4.382677   -1.063901
  O      4.666584    4.584571    0.011802
  O      3.293205    5.221456   -1.651794
  C      3.058682    6.460634   -0.966528
  C     -3.113386    1.451284   -1.623782
  C     -4.362005    1.431486   -0.816231
  C     -5.252522    0.439033   -0.742085
  C     -5.122232   -0.876908   -1.459134
  C     -6.497245    0.598310    0.093188
  C     -7.796788    0.622560   -0.723564
  C     -9.034096    0.770893    0.159777
  C    -10.375291    0.724638   -0.585861
  C    -10.541501    1.919308   -1.528846
  C    -11.531336    0.621411    0.418833
  C    -12.909310    0.375287   -0.193858
  C    -13.991724    0.167605    0.864332
  C    -15.385285   -0.175833    0.319462
  C    -15.969237    0.968854   -0.512490
  C    -16.316509   -0.573723    1.473367
  C    -17.675796   -1.131403    1.053752
  C    -18.502427   -1.617095    2.243453
  C    -19.923295   -2.085978    1.904308
  C    -19.929498   -3.294126    0.964709
  C    -20.704004   -2.397334    3.182676
  H      3.190515   -1.521317    2.939485
  H      8.607171   -4.507497    1.404701
  H      9.891945    0.014024   -2.905384
  H      2.748165    2.684594    0.599789
  H      1.733111    0.219047    1.655257
  H      2.062261    2.273792    3.017986
  H      2.883328    0.900103    3.771261
  H      3.815653    2.103920    2.874006
  H      1.913775    1.814778   -1.639835
  H      1.648464    0.259798   -0.896643
  H     -0.003903    1.336742    0.704449
  H      0.330300    2.887549   -0.025835
  H      3.058327   -3.526022    3.751709
  H      3.996583   -4.976686    4.111851
  H      4.264312   -3.502080    5.033330
  H      7.484895   -5.885268    2.598214
  H      7.069801   -6.791697    4.767681
  H      5.984543   -5.373487    5.215213
  H     10.347404   -5.360236   -0.476157
  H     11.813753   -4.405867   -0.660908
  H     11.011159   -4.494374    0.904323
  H     11.762268   -1.129283   -2.517881
  H     12.348967   -2.644684   -1.885420
  H     12.117450   -2.754751   -4.369153
  H     11.010005   -3.901451   -3.602441
  H     10.393547   -2.378779   -4.237777
  H      9.046517    1.692599   -4.804780
  H      8.408763    3.317443   -4.517755
  H      9.762030    2.708615   -3.559300
  H      3.575461    3.043390   -2.605848
  H      2.644615    6.277495    0.024917
  H      3.988817    7.019046   -0.866671
  H      2.350264    7.005887   -1.584013
  H     -3.098953    2.293165   -2.320868
  H     -2.956563    0.545577   -2.204288
  H     -4.551145    2.336338   -0.245550
  H     -5.365305   -1.699154   -0.780373
  H     -5.824891   -0.942756   -2.294440
  H     -4.124269   -1.051942   -1.855134
  H     -6.550710   -0.229670    0.811016
  H     -6.427548    1.518531    0.678869
  H     -7.737859    1.442187   -1.444423
  H     -7.887166   -0.298839   -1.307267
  H     -9.023506   -0.030802    0.906579
  H     -8.970541    1.710227    0.722975
  H    -10.383921   -0.190715   -1.193364
  H     -9.727231    1.978854   -2.251927
  H    -11.471821    1.859981   -2.094507
  H    -10.554337    2.855782   -0.962340
  H    -11.309579   -0.193066    1.117345
  H    -11.561704    1.537014    1.022768
  H    -13.180529    1.212765   -0.839680
  H    -12.863352   -0.509414   -0.840706
  H    -13.673828   -0.638839    1.534600
  H    -14.066240    1.066786    1.488662
  H    -15.277549   -1.051461   -0.335040
  H    -16.089775    1.865908    0.103209
  H    -15.325326    1.227446   -1.353899
  H    -16.946989    0.712178   -0.921565
  H    -15.806139   -1.325840    2.085383
  H    -16.465885    0.295441    2.126078
  H    -18.246763   -0.368448    0.515482
  H    -17.517605   -1.952001    0.346725
  H    -17.970725   -2.434459    2.747015
  H    -18.570278   -0.805635    2.976887
  H    -20.431609   -1.258631    1.392579
  H    -19.395621   -4.136477    1.415694
  H    -20.950711   -3.622167    0.757624
  H    -19.454561   -3.072425    0.007986
  H    -20.739492   -1.531625    3.848253
  H    -21.731896   -2.691756    2.958809
  H    -20.235584   -3.219747    3.731699

----------------------------
CARTESIAN COORDINATES (A.U.)
----------------------------
  NO LB      ZA    FRAG     MASS         X           Y           Z
   0 Mg   12.0000    0    24.305   12.244150   -1.618869   -0.042803
   1 C     6.0000    0    12.011    9.117669    3.640983   -2.247243
   2 C     6.0000    0    12.011    7.497204   -2.582295    4.162593
   3 C     6.0000    0    12.011   15.288738   -6.849835    1.993097
   4 C     6.0000    0    12.011   17.147172   -0.367176   -4.210897
   5 N     7.0000    0    14.007    8.777822    0.277697    0.781471
   6 C     6.0000    0    12.011    7.832875    2.388903   -0.379616
   7 C     6.0000    0    12.011    5.252461    3.068858    0.638365
   8 C     6.0000    0    12.011    5.078862    1.414145    3.034297
   9 C     6.0000    0    12.011    7.218854   -0.460944    2.660282
  10 C     6.0000    0    12.011    5.430041    2.933815    5.474153
  11 C     6.0000    0    12.011    3.170567    2.520369   -1.306312
  12 C     6.0000    0    12.011    0.579156    3.421719   -0.431082
  13 C     6.0000    0    12.011   -1.455036    2.988869   -2.389325
  14 O     8.0000    0    15.999   -1.082848    2.648926   -4.611227
  15 O     8.0000    0    15.999   -3.767251    3.056636   -1.339370
  16 N     7.0000    0    14.007   11.498863   -4.269049    2.586097
  17 C     6.0000    0    12.011    9.450427   -4.374014    4.130402
  18 C     6.0000    0    12.011    9.601594   -6.573122    5.745089
  19 C     6.0000    0    12.011   11.819864   -7.787021    5.136570
  20 C     6.0000    0    12.011   12.996415   -6.318224    3.134277
  21 C     6.0000    0    12.011    7.647997   -7.350127    7.620513
  22 C     6.0000    0    12.011   12.878104  -10.101152    6.160832
  23 C     6.0000    0    12.011   12.474174  -11.077129    8.453789
  24 N     7.0000    0    14.007   15.616467   -3.309313   -0.960768
  25 C     6.0000    0    12.011   16.524849   -5.468082    0.095180
  26 C     6.0000    0    12.011   18.937698   -6.112274   -1.003476
  27 C     6.0000    0    12.011   19.468475   -4.272369   -2.748794
  28 C     6.0000    0    12.011   17.368116   -2.525330   -2.709047
  29 C     6.0000    0    12.011   20.483510   -8.373791   -0.327418
  30 C     6.0000    0    12.011   21.705342   -4.111562   -4.467801
  31 C     6.0000    0    12.011   21.239160   -5.369163   -7.040160
  32 N     7.0000    0    14.007   13.038331    0.996275   -2.668435
  33 C     6.0000    0    12.011   15.132980    1.321984   -4.222767
  34 C     6.0000    0    12.011   14.834772    3.575810   -5.735464
  35 C     6.0000    0    12.011   12.508103    4.556144   -5.027605
  36 C     6.0000    0    12.011   11.498912    2.919701   -3.166309
  37 C     6.0000    0    12.011   16.659691    4.595341   -7.621199
  38 C     6.0000    0    12.011   10.731727    6.609750   -5.453431
  39 O     8.0000    0    15.999   10.857938    8.431486   -6.820866
  40 C     6.0000    0    12.011    8.373566    6.017167   -3.670469
  41 C     6.0000    0    12.011    7.862792    8.282060   -2.010482
  42 O     8.0000    0    15.999    8.818566    8.663584    0.022303
  43 O     8.0000    0    15.999    6.223255    9.867122   -3.121439
  44 C     6.0000    0    12.011    5.780071   12.208830   -1.826473
  45 C     6.0000    0    12.011   -5.883447    2.742529   -3.068504
  46 C     6.0000    0    12.011   -8.242995    2.705116   -1.542453
  47 C     6.0000    0    12.011   -9.925828    0.829652   -1.402337
  48 C     6.0000    0    12.011   -9.679615   -1.657115   -2.757363
  49 C     6.0000    0    12.011  -12.278014    1.130642    0.176100
  50 C     6.0000    0    12.011  -14.733793    1.176469   -1.367338
  51 C     6.0000    0    12.011  -17.071967    1.456776    0.301934
  52 C     6.0000    0    12.011  -19.606458    1.369367   -1.107117
  53 C     6.0000    0    12.011  -19.920549    3.626967   -2.889100
  54 C     6.0000    0    12.011  -21.791068    1.174296    0.791479
  55 C     6.0000    0    12.011  -24.395060    0.709190   -0.366339
  56 C     6.0000    0    12.011  -26.440526    0.316728    1.633351
  57 C     6.0000    0    12.011  -29.073976   -0.332276    0.603695
  58 C     6.0000    0    12.011  -30.177484    1.830869   -0.968466
  59 C     6.0000    0    12.011  -30.833733   -1.084180    2.784260
  60 C     6.0000    0    12.011  -33.402414   -2.138041    1.991302
  61 C     6.0000    0    12.011  -34.964519   -3.055867    4.239511
  62 C     6.0000    0    12.011  -37.649571   -3.941927    3.598621
  63 C     6.0000    0    12.011  -37.661293   -6.224995    1.823035
  64 C     6.0000    0    12.011  -39.124897   -4.530305    6.014386
  65 H     1.0000    0     1.008    6.029200   -2.874872    5.554822
  66 H     1.0000    0     1.008   16.265196   -8.517935    2.654501
  67 H     1.0000    0     1.008   18.693067    0.026501   -5.490380
  68 H     1.0000    0     1.008    5.193278    5.073147    1.133438
  69 H     1.0000    0     1.008    3.275105    0.413939    3.127982
  70 H     1.0000    0     1.008    3.897109    4.296844    5.703167
  71 H     1.0000    0     1.008    5.448700    1.700949    7.126651
  72 H     1.0000    0     1.008    7.210540    3.975833    5.431084
  73 H     1.0000    0     1.008    3.616510    3.429433   -3.098840
  74 H     1.0000    0     1.008    3.115145    0.490947   -1.694410
  75 H     1.0000    0     1.008   -0.007376    2.526076    1.331217
  76 H     1.0000    0     1.008    0.624176    5.456676   -0.048821
  77 H     1.0000    0     1.008    5.779400   -6.663215    7.089702
  78 H     1.0000    0     1.008    7.552448   -9.404573    7.770273
  79 H     1.0000    0     1.008    8.058383   -6.617973    9.511615
  80 H     1.0000    0     1.008   14.144402  -11.121544    4.909912
  81 H     1.0000    0     1.008   13.359987  -12.834447    9.009612
  82 H     1.0000    0     1.008   11.309148  -10.154420    9.855325
  83 H     1.0000    0     1.008   19.553759  -10.129378   -0.899807
  84 H     1.0000    0     1.008   22.324758   -8.325883   -1.248936
  85 H     1.0000    0     1.008   20.808074   -8.493136    1.708924
  86 H     1.0000    0     1.008   22.227464   -2.134035   -4.758106
  87 H     1.0000    0     1.008   23.336165   -4.997728   -3.562927
  88 H     1.0000    0     1.008   22.898661   -5.205725   -8.256502
  89 H     1.0000    0     1.008   20.805894   -7.372674   -6.807627
  90 H     1.0000    0     1.008   19.640957   -4.495241   -8.008238
  91 H     1.0000    0     1.008   17.095439    3.198548   -9.079718
  92 H     1.0000    0     1.008   15.890260    6.269060   -8.537319
  93 H     1.0000    0     1.008   18.447564    5.118540   -6.726102
  94 H     1.0000    0     1.008    6.756642    5.751174   -4.924338
  95 H     1.0000    0     1.008    4.997597   11.862746    0.047086
  96 H     1.0000    0     1.008    7.537771   13.264075   -1.637771
  97 H     1.0000    0     1.008    4.441355   13.239207   -2.993351
  98 H     1.0000    0     1.008   -5.856172    4.333454   -4.385805
  99 H     1.0000    0     1.008   -5.587094    1.030991   -4.165501
 100 H     1.0000    0     1.008   -8.600417    4.415039   -0.464021
 101 H     1.0000    0     1.008  -10.138957   -3.210935   -1.474691
 102 H     1.0000    0     1.008  -11.007449   -1.781551   -4.335864
 103 H     1.0000    0     1.008   -7.793738   -1.987882   -3.505696
 104 H     1.0000    0     1.008  -12.379049   -0.434014    1.532598
 105 H     1.0000    0     1.008  -12.146305    2.869607    1.282877
 106 H     1.0000    0     1.008  -14.622434    2.725339   -2.729564
 107 H     1.0000    0     1.008  -14.904583   -0.564724   -2.470377
 108 H     1.0000    0     1.008  -17.051954   -0.058208    1.713187
 109 H     1.0000    0     1.008  -16.951865    3.231861    1.366225
 110 H     1.0000    0     1.008  -19.622766   -0.360399   -2.255131
 111 H     1.0000    0     1.008  -18.381802    3.739491   -4.255525
 112 H     1.0000    0     1.008  -21.678599    3.514854   -3.958045
 113 H     1.0000    0     1.008  -19.944806    5.396646   -1.818560
 114 H     1.0000    0     1.008  -21.372008   -0.364841    2.111477
 115 H     1.0000    0     1.008  -21.848454    2.904536    1.932752
 116 H     1.0000    0     1.008  -24.907590    2.291794   -1.586766
 117 H     1.0000    0     1.008  -24.308212   -0.962653   -1.588704
 118 H     1.0000    0     1.008  -25.839790   -1.207231    2.899973
 119 H     1.0000    0     1.008  -26.581341    2.015933    2.813163
 120 H     1.0000    0     1.008  -28.870383   -1.986973   -0.633133
 121 H     1.0000    0     1.008  -30.405269    3.526055    0.195036
 122 H     1.0000    0     1.008  -28.960670    2.319536   -2.558499
 123 H     1.0000    0     1.008  -32.025168    1.345821   -1.741506
 124 H     1.0000    0     1.008  -29.869274   -2.505475    3.940802
 125 H     1.0000    0     1.008  -31.116014    0.558302    4.017705
 126 H     1.0000    0     1.008  -34.481386   -0.696266    0.974119
 127 H     1.0000    0     1.008  -33.103476   -3.688748    0.655216
 128 H     1.0000    0     1.008  -33.959749   -4.600460    5.191106
 129 H     1.0000    0     1.008  -35.092740   -1.522429    5.625502
 130 H     1.0000    0     1.008  -38.610145   -2.378468    2.631593
 131 H     1.0000    0     1.008  -36.652413   -7.816809    2.675273
 132 H     1.0000    0     1.008  -39.591106   -6.844903    1.431702
 133 H     1.0000    0     1.008  -36.763792   -5.806042    0.015092
 134 H     1.0000    0     1.008  -39.191961   -2.894351    7.272145
 135 H     1.0000    0     1.008  -41.067332   -5.086682    5.591338
 136 H     1.0000    0     1.008  -38.239712   -6.084441    7.051889

--------------------------------
INTERNAL COORDINATES (ANGSTROEM)
--------------------------------
 Mg     0   0   0     0.000000000000     0.00000000     0.00000000
 C      1   0   0     3.441706040795     0.00000000     0.00000000
 C      1   2   0     3.394457668888    89.30889667     0.00000000
 C      1   2   3     3.379177049487   178.68175990   112.27289249
 C      1   2   3     3.469214613735    89.40493490   182.29922912
 N      1   2   3     2.135924835471    43.64663978     0.72297241
 C      6   1   2     1.369561443797   127.24560283     1.16512150
 C      7   6   1     1.511369369791   111.35686998   176.67956037
 C      8   7   6     1.543592769906   102.20898485    13.11530211
 C      6   1   2     1.349754485386   122.63215241   183.37318882
 C      9   8   7     1.532388190848   112.77664995   105.03734026
 C      8   7   6     1.535242429099   111.37164823   251.45860928
 C     12   8   7     1.523982230910   112.50920958   185.52321196
 C     13  12   8     1.511633612473   112.64445898   177.46814922
 O     14  13  12     1.205657098788   125.08662567   340.38500786
 O     14  13  12     1.344291055565   111.14830867   161.04362100
 N      1   2   3     2.014353277146   134.66866264     1.99036412
 C     17   1   2     1.358654949213   126.87482816   357.69144692
 C     18  17   1     1.445936755180   110.13316003   179.72837459
 C     19  18  17     1.376325521682   106.53231770     0.37739225
 C     17   1   2     1.374056403486   125.61365444   177.59506666
 C     19  18  17     1.490880187271   125.23758309   182.18112390
 C     20  19  18     1.451546231965   129.45157536   180.80476837
 C     23  20  19     1.335933264052   127.12610259   333.72833071
 N      1   2   3     2.054461113194   133.59421682   180.89498556
 C     25   1   2     1.359529079887   125.15624580   181.97463487
 C     26  25   1     1.443777996460   110.21707011   179.85213705
 C     27  26  25     1.371080601320   106.54412342     0.26046554
 C     25   1   2     1.373760941850   127.86735246     1.97620977
 C     27  26  25     1.493090831842   125.25889970   180.66305093
 C     28  27  26     1.495280324903   127.76173296   182.26827086
 C     31  28  27     1.535153770543   112.80223231    91.51067135
 N      1   2   3     2.005550035663    46.20171862   182.09124075
 C     33   1   2     1.391000182885   131.46322253   178.53647119
 C     34  33   1     1.445042403301   110.04801695   182.27813617
 C     35  34  33     1.387565357793   104.82885546   359.88862450
 C     33   1   2     1.330042104720   122.47532434     0.94304293
 C     35  34  33     1.489778941651   126.80960458   179.58057088
 C     36  35  34     1.454432847022   144.19495672   179.56518189
 O     39  36  35     1.207235199980   130.82562105   358.58789359
 C      2   1   3     1.517688754903   164.35575665   177.50215655
 C     41   2   1     1.510352210713   114.53659303   237.78801913
 O     42  41   2     1.205696981445   125.21920743    28.62695551
 O     42  41   2     1.342351819838   110.90379824   207.38963558
 C     44  42  41     1.435323425278   115.84767491   185.77235653
 C     16  14  13     1.455656177894   115.93602451   178.09424862
 C     46  16  14     1.487138224139   107.82408391   176.39128295
 C     47  46  16     1.335469914406   126.86357787   240.13166419
 C     48  47  46     1.504271866507   124.46393816     1.53589320
 C     48  47  46     1.507443692477   120.18853641   182.08211459
 C     50  48  47     1.535083602003   113.94616119   113.82673898
 C     51  50  48     1.527489747424   112.30801206   179.41735962
 C     52  51  50     1.535225844420   115.07823818   183.22502876
 C     53  52  51     1.531039827228   111.74457360   294.54639931
 C     53  52  51     1.535091596965   110.00198802   169.55329475
 C     55  53  52     1.527998016085   115.31140995   188.00077823
 C     56  55  53     1.527912952873   112.52332946   175.22595773
 C     57  56  55     1.535202868777   115.31959895   183.81369614
 C     58  57  56     1.530833790524   111.83105398   295.92296269
 C     58  57  56     1.535249455416   109.98772544   171.11282683
 C     60  58  57     1.527987534656   115.32662168   188.36114646
 C     61  60  58     1.527940721061   112.54865178   175.09142631
 C     62  61  60     1.534189181039   115.21877166   175.32659430
 C     63  62  61     1.530525094603   112.37773016    62.43618717
 C     63  62  61     1.529925696594   110.49264646   186.37032651
 H      3   1   2     1.081768203352   178.03369337   246.95217603
 H      4   1  33     1.081061552948   179.67226140   109.10243791
 H      5   1   2     1.082144705435   179.25352134   117.53697296
 H      8   7   6     1.092949382779   110.02050629   130.63440572
 H      9   8   7     1.092559231141   111.35078720   227.65559267
 H     11   9   8     1.092231799297   110.48570164    64.28463475
 H     11   9   8     1.091062415020   111.25922898   184.51660560
 H     11   9   8     1.091931483368   110.61375920   304.69831410
 H     12   8   7     1.089439052268   110.16398147   307.03693870
 H     12   8   7     1.093778005785   109.31283122    63.14696688
 H     13  12   8     1.091169615291   112.31783307   300.36521265
 H     13  12   8     1.095946293867   110.12438865    58.22254394
 H     22  19  18     1.090318771361   111.43379415    26.30205799
 H     22  19  18     1.091222824261   110.80820574   146.57513737
 H     22  19  18     1.094864437862   111.91932658   266.14699076
 H     23  20  19     1.085717523549   115.46876553   154.25467552
 H     24  23  20     1.082135009911   120.64931197   179.51173494
 H     24  23  20     1.080996271574   122.66867946   357.82047717
 H     30  27  26     1.094022112369   111.58670526    66.88218537
 H     30  27  26     1.089859196202   111.34243960   186.78889270
 H     30  27  26     1.093013379468   111.63089619   307.03601772
 H     31  28  27     1.093170603854   109.87990608   213.77447853
 H     31  28  27     1.092680173599   109.52404781   329.62305820
 H     32  31  28     1.092227748472   111.03983592   179.49665320
 H     32  31  28     1.091676704330   110.78182354   299.74471277
 H     32  31  28     1.091589792214   110.91481554    59.11175549
 H     38  35  34     1.093258028841   111.39260199    56.76947194
 H     38  35  34     1.088695886091   110.51508040   177.25242932
 H     38  35  34     1.093673054236   111.24366744   297.32442143
 H     41   2   1     1.091873915343   113.45746400   112.60821853
 H     45  44  42     1.089933170437   110.56657729   299.19395487
 H     45  44  42     1.089470081645   110.29001910    59.93697327
 H     45  44  42     1.086482723818   105.57310553   179.41657570
 H     46  16  14     1.093115037183   107.62327232   296.87668026
 H     46  16  14     1.087145972860   108.65137100    52.88918616
 H     47  46  16     1.086374065722   114.85632311    60.90451933
 H     49  48  47     1.093567218463   110.03786682   134.98372840
 H     49  48  47     1.093528000528   111.17010710   252.87050003
 H     49  48  47     1.087834694435   113.18723214    14.06021615
 H     50  48  47     1.097126796743   108.84654230   235.16917089
 H     50  48  47     1.093016894838   109.46381553   351.48176087
 H     51  50  48     1.093114422312   108.48613637   302.00526767
 H     51  50  48     1.094465335836   109.89914245    58.07575953
 H     52  51  50     1.095692216140   108.37733942   304.87809236
 H     52  51  50     1.097078674144   109.45671986    60.08109449
 H     53  52  51     1.098637861798   107.48942116    52.84898143
 H     54  53  52     1.090608876419   111.70967107    57.08510038
 H     54  53  52     1.090407370954   111.69577010   177.17336907
 H     54  53  52     1.094566644565   110.49338561   297.11876573
 H     55  53  52     1.095658562815   108.34990725   309.86932652
 H     55  53  52     1.097265044317   108.96307873    64.72478856
 H     56  55  53     1.091794636498   109.73417016   297.73589370
 H     56  55  53     1.096913744516   109.18287149    53.84271799
 H     57  56  55     1.095750304412   108.55144520   305.63648243
 H     57  56  55     1.097208356789   109.31761477    60.77270626
 H     58  57  56     1.098500218252   107.50312798    54.35411304
 H     59  58  57     1.094678352166   110.43194757   298.33047336
 H     59  58  57     1.090623405738   111.79940661    58.27252283
 H     59  58  57     1.090515402222   111.70819168   178.41048480
 H     60  58  57     1.095774012612   108.37083783   310.16084563
 H     60  58  57     1.097173987975   108.92946885    65.00155316
 H     61  60  58     1.094457998821   110.16503112   296.70845958
 H     61  60  58     1.094665633427   108.80902643    52.84696571
 H     62  61  60     1.097435554605   109.38484606   298.25766262
 H     62  61  60     1.095900648595   108.61617800    53.43777342
 H     63  62  61     1.097612540539   107.55338088   303.85862343
 H     64  63  62     1.094516853070   110.64487396    59.29474490
 H     64  63  62     1.092415493238   110.92854484   178.68358653
 H     64  63  62     1.090886604273   112.09956099   298.94774306
 H     65  63  62     1.092568370600   111.36705533    57.06330813
 H     65  63  62     1.092411933628   111.33184149   177.57061750
 H     65  63  62     1.094169259873   110.71834319   297.27783005

---------------------------
INTERNAL COORDINATES (A.U.)
---------------------------
 Mg     0   0   0     0.000000000000     0.00000000     0.00000000
 C      1   0   0     6.503881850565     0.00000000     0.00000000
 C      1   2   0     6.414595367388    89.30889667     0.00000000
 C      1   2   3     6.385719181563   178.68175990   112.27289249
 C      1   2   3     6.555865519757    89.40493490   182.29922912
 N      1   2   3     4.036312981681    43.64663978     0.72297241
 C      6   1   2     2.588096052353   127.24560283     1.16512150
 C      7   6   1     2.856074196101   111.35686998   176.67956037
 C      8   7   6     2.916967597424   102.20898485    13.11530211
 C      6   1   2     2.550666325412   122.63215241   183.37318882
 C      9   8   7     2.895794011557   112.77664995   105.03734026
 C      8   7   6     2.901187740173   111.37164823   251.45860928
 C     12   8   7     2.879909049382   112.50920958   185.52321196
 C     13  12   8     2.856573542404   112.64445898   177.46814922
 O     14  13  12     2.278361728128   125.08662567   340.38500786
 O     14  13  12     2.540341939297   111.14830867   161.04362100
 N      1   2   3     3.806576030773   134.66866264     1.99036412
 C     17   1   2     2.567485764510   126.87482816   357.69144692
 C     18  17   1     2.732424474260   110.13316003   179.72837459
 C     19  18  17     2.600878307106   106.53231770     0.37739225
 C     17   1   2     2.596590295149   125.61365444   177.59506666
 C     19  18  17     2.817355252431   125.23758309   182.18112390
 C     20  19  18     2.743024849138   129.45157536   180.80476837
 C     23  20  19     2.524548002254   127.12610259   333.72833071
 N      1   2   3     3.882368856727   133.59421682   180.89498556
 C     25   1   2     2.569137632088   125.15624580   181.97463487
 C     26  25   1     2.728345011491   110.21707011   179.85213705
 C     27  26  25     2.590966844026   106.54412342     0.26046554
 C     25   1   2     2.596031953574   127.86735246     1.97620977
 C     27  26  25     2.821532765249   125.25889970   180.66305093
 C     28  27  26     2.825670307508   127.76173296   182.26827086
 C     31  28  27     2.901020199782   112.80223231    91.51067135
 N      1   2   3     3.789940315278    46.20171862   182.09124075
 C     33   1   2     2.628609397886   131.46322253   178.53647119
 C     34  33   1     2.730734394142   110.04801695   182.27813617
 C     35  34  33     2.622118519145   104.82885546   359.88862450
 C     33   1   2     2.513415324504   122.47532434     0.94304293
 C     35  34  33     2.815274199803   126.80960458   179.58057088
 C     36  35  34     2.748479761051   144.19495672   179.56518189
 O     39  36  35     2.281343907192   130.82562105   358.58789359
 C      2   1   3     2.868016103299   164.35575665   177.50215655
 C     41   2   1     2.854152044011   114.53659303   237.78801913
 O     42  41   2     2.278437095426   125.21920743    28.62695551
 O     42  41   2     2.536677314864   110.90379824   207.38963558
 C     44  42  41     2.712368187377   115.84767491   185.77235653
 C     16  14  13     2.750791521371   115.93602451   178.09424862
 C     46  16  14     2.810283966908   107.82408391   176.39128295
 C     47  46  16     2.523672398318   126.86357787   240.13166419
 C     48  47  46     2.842661858662   124.46393816     1.53589320
 C     48  47  46     2.848655741088   120.18853641   182.08211459
 C     50  48  47     2.900887600459   113.94616119   113.82673898
 C     51  50  48     2.886537295005   112.30801206   179.41735962
 C     52  51  50     2.901156399672   115.07823818   183.22502876
 C     53  52  51     2.893245973588   111.74457360   294.54639931
 C     53  52  51     2.900902708747   110.00198802   169.55329475
 C     55  53  52     2.887497783577   115.31140995   188.00077823
 C     56  55  53     2.887337037401   112.52332946   175.22595773
 C     57  56  55     2.901112981998   115.31959895   183.81369614
 C     58  57  56     2.892856620643   111.83105398   295.92296269
 C     58  57  56     2.901201017988   109.98772544   171.11282683
 C     60  58  57     2.887477976544   115.32662168   188.36114646
 C     61  60  58     2.887389511672   112.54865178   175.09142631
 C     62  61  60     2.899197389790   115.21877166   175.32659430
 C     63  62  61     2.892273269893   112.37773016    62.43618717
 C     63  62  61     2.891140571812   110.49264646   186.37032651
 H      3   1   2     2.044245644720   178.03369337   246.95217603
 H      4   1  33     2.042910268983   179.67226140   109.10243791
 H      5   1   2     2.044957130545   179.25352134   117.53697296
 H      8   7   6     2.065375011691   110.02050629   130.63440572
 H      9   8   7     2.064637731945   111.35078720   227.65559267
 H     11   9   8     2.064018975432   110.48570164    64.28463475
 H     11   9   8     2.061809159403   111.25922898   184.51660560
 H     11   9   8     2.063451460571   110.61375920   304.69831410
 H     12   8   7     2.058741448386   110.16398147   307.03693870
 H     12   8   7     2.066940882240   109.31283122    63.14696688
 H     13  12   8     2.062011738556   112.31783307   300.36521265
 H     13  12   8     2.071038352894   110.12438865    58.22254394
 H     22  19  18     2.060403876546   111.43379415    26.30205799
 H     22  19  18     2.062112288937   110.80820574   146.57513737
 H     22  19  18     2.068993941328   111.91932658   266.14699076
 H     23  20  19     2.051708778307   115.46876553   154.25467552
 H     24  23  20     2.044938808660   120.64931197   179.51173494
 H     24  23  20     2.042786905064   122.66867946   357.82047717
 H     30  27  26     2.067402176831   111.58670526    66.88218537
 H     30  27  26     2.059535405358   111.34243960   186.78889270
 H     30  27  26     2.065495947906   111.63089619   307.03601772
 H     31  28  27     2.065793058937   109.87990608   213.77447853
 H     31  28  27     2.064866280067   109.52404781   329.62305820
 H     32  31  28     2.064011320482   111.03983592   179.49665320
 H     32  31  28     2.062969997966   110.78182354   299.74471277
 H     32  31  28     2.062805757869   110.91481554    59.11175549
 H     38  35  34     2.065958268220   111.39260199    56.76947194
 H     38  35  34     2.057337067839   110.51508040   177.25242932
 H     38  35  34     2.066742552556   111.24366744   297.32442143
 H     41   2   1     2.063342672771   113.45746400   112.60821853
 H     45  44  42     2.059675196402   110.56657729   299.19395487
 H     45  44  42     2.058800085410   110.29001910    59.93697327
 H     45  44  42     2.053154797254   105.57310553   179.41657570
 H     46  16  14     2.065688053147   107.62327232   296.87668026
 H     46  16  14     2.054408156300   108.65137100    52.88918616
 H     47  46  16     2.052949463210   114.85632311    60.90451933
 H     49  48  47     2.066542551928   110.03786682   134.98372840
 H     49  48  47     2.066468440772   111.17010710   252.87050003
 H     49  48  47     2.055709651459   113.18723214    14.06021615
 H     50  48  47     2.073269180030   108.84654230   235.16917089
 H     50  48  47     2.065502590993   109.46381553   351.48176087
 H     51  50  48     2.065686891209   108.48613637   302.00526767
 H     51  50  48     2.068239747800   109.89914245    58.07575953
 H     52  51  50     2.070558215575   108.37733942   304.87809236
 H     52  51  50     2.073178241497   109.45671986    60.08109449
 H     53  52  51     2.076124679155   107.48942116    52.84898143
 H     54  53  52     2.060952095656   111.70967107    57.08510038
 H     54  53  52     2.060571305511   111.69577010   177.17336907
 H     54  53  52     2.068431193553   110.49338561   297.11876573
 H     55  53  52     2.070494620007   108.34990725   309.86932652
 H     55  53  52     2.073530430084   108.96307873    64.72478856
 H     56  55  53     2.063192857464   109.73417016   297.73589370
 H     56  55  53     2.072866569669   109.18287149    53.84271799
 H     57  56  55     2.070667986500   108.55144520   305.63648243
 H     57  56  55     2.073423306182   109.31761477    60.77270626
 H     58  57  56     2.075864570548   107.50312798    54.35411304
 H     59  58  57     2.068642290326   110.43194757   298.33047336
 H     59  58  57     2.060979552090   111.79940661    58.27252283
 H     59  58  57     2.060775455023   111.70819168   178.41048480
 H     60  58  57     2.070712788505   108.37083783   310.16084563
 H     60  58  57     2.073358358534   108.92946885    65.00155316
 H     61  60  58     2.068225882851   110.16503112   296.70845958
 H     61  60  58     2.068618255392   108.80902643    52.84696571
 H     62  61  60     2.073852647832   109.38484606   298.25766262
 H     62  61  60     2.070952095832   108.61617800    53.43777342
 H     63  62  61     2.074187102777   107.55338088   303.85862343
 H     64  63  62     2.068337101264   110.64487396    59.29474490
 H     64  63  62     2.064366106672   110.92854484   178.68358653
 H     64  63  62     2.061476925239   112.09956099   298.94774306
 H     65  63  62     2.064655003018   111.36705533    57.06330813
 H     65  63  62     2.064359379984   111.33184149   177.57061750
 H     65  63  62     2.067680245315   110.71834319   297.27783005

---------------------
BASIS SET INFORMATION
---------------------
There are 5 groups of distinct atoms

 Group   1 Type Mg  : 14s8p3d contracted to 5s4p3d pattern {73211/5111/111}
 Group   2 Type C   : 11s6p2d1f contracted to 5s3p2d1f pattern {62111/411/11/1}
 Group   3 Type N   : 11s6p2d1f contracted to 5s3p2d1f pattern {62111/411/11/1}
 Group   4 Type O   : 11s6p2d1f contracted to 5s3p2d1f pattern {62111/411/11/1}
 Group   5 Type H   : 5s1p contracted to 3s1p pattern {311/1}

Atom   0Mg   basis set group =>   1
Atom   1C    basis set group =>   2
Atom   2C    basis set group =>   2
Atom   3C    basis set group =>   2
Atom   4C    basis set group =>   2
Atom   5N    basis set group =>   3
Atom   6C    basis set group =>   2
Atom   7C    basis set group =>   2
Atom   8C    basis set group =>   2
Atom   9C    basis set group =>   2
Atom  10C    basis set group =>   2
Atom  11C    basis set group =>   2
Atom  12C    basis set group =>   2
Atom  13C    basis set group =>   2
Atom  14O    basis set group =>   4
Atom  15O    basis set group =>   4
Atom  16N    basis set group =>   3
Atom  17C    basis set group =>   2
Atom  18C    basis set group =>   2
Atom  19C    basis set group =>   2
Atom  20C    basis set group =>   2
Atom  21C    basis set group =>   2
Atom  22C    basis set group =>   2
Atom  23C    basis set group =>   2
Atom  24N    basis set group =>   3
Atom  25C    basis set group =>   2
Atom  26C    basis set group =>   2
Atom  27C    basis set group =>   2
Atom  28C    basis set group =>   2
Atom  29C    basis set group =>   2
Atom  30C    basis set group =>   2
Atom  31C    basis set group =>   2
Atom  32N    basis set group =>   3
Atom  33C    basis set group =>   2
Atom  34C    basis set group =>   2
Atom  35C    basis set group =>   2
Atom  36C    basis set group =>   2
Atom  37C    basis set group =>   2
Atom  38C    basis set group =>   2
Atom  39O    basis set group =>   4
Atom  40C    basis set group =>   2
Atom  41C    basis set group =>   2
Atom  42O    basis set group =>   4
Atom  43O    basis set group =>   4
Atom  44C    basis set group =>   2
Atom  45C    basis set group =>   2
Atom  46C    basis set group =>   2
Atom  47C    basis set group =>   2
Atom  48C    basis set group =>   2
Atom  49C    basis set group =>   2
Atom  50C    basis set group =>   2
Atom  51C    basis set group =>   2
Atom  52C    basis set group =>   2
Atom  53C    basis set group =>   2
Atom  54C    basis set group =>   2
Atom  55C    basis set group =>   2
Atom  56C    basis set group =>   2
Atom  57C    basis set group =>   2
Atom  58C    basis set group =>   2
Atom  59C    basis set group =>   2
Atom  60C    basis set group =>   2
Atom  61C    basis set group =>   2
Atom  62C    basis set group =>   2
Atom  63C    basis set group =>   2
Atom  64C    basis set group =>   2
Atom  65H    basis set group =>   5
Atom  66H    basis set group =>   5
Atom  67H    basis set group =>   5
Atom  68H    basis set group =>   5
Atom  69H    basis set group =>   5
Atom  70H    basis set group =>   5
Atom  71H    basis set group =>   5
Atom  72H    basis set group =>   5
Atom  73H    basis set group =>   5
Atom  74H    basis set group =>   5
Atom  75H    basis set group =>   5
Atom  76H    basis set group =>   5
Atom  77H    basis set group =>   5
Atom  78H    basis set group =>   5
Atom  79H    basis set group =>   5
Atom  80H    basis set group =>   5
Atom  81H    basis set group =>   5
Atom  82H    basis set group =>   5
Atom  83H    basis set group =>   5
Atom  84H    basis set group =>   5
Atom  85H    basis set group =>   5
Atom  86H    basis set group =>   5
Atom  87H    basis set group =>   5
Atom  88H    basis set group =>   5
Atom  89H    basis set group =>   5
Atom  90H    basis set group =>   5
Atom  91H    basis set group =>   5
Atom  92H    basis set group =>   5
Atom  93H    basis set group =>   5
Atom  94H    basis set group =>   5
Atom  95H    basis set group =>   5
Atom  96H    basis set group =>   5
Atom  97H    basis set group =>   5
Atom  98H    basis set group =>   5
Atom  99H    basis set group =>   5
Atom 100H    basis set group =>   5
Atom 101H    basis set group =>   5
Atom 102H    basis set group =>   5
Atom 103H    basis set group =>   5
Atom 104H    basis set group =>   5
Atom 105H    basis set group =>   5
Atom 106H    basis set group =>   5
Atom 107H    basis set group =>   5
Atom 108H    basis set group =>   5
Atom 109H    basis set group =>   5
Atom 110H    basis set group =>   5
Atom 111H    basis set group =>   5
Atom 112H    basis set group =>   5
Atom 113H    basis set group =>   5
Atom 114H    basis set group =>   5
Atom 115H    basis set group =>   5
Atom 116H    basis set group =>   5
Atom 117H    basis set group =>   5
Atom 118H    basis set group =>   5
Atom 119H    basis set group =>   5
Atom 120H    basis set group =>   5
Atom 121H    basis set group =>   5
Atom 122H    basis set group =>   5
Atom 123H    basis set group =>   5
Atom 124H    basis set group =>   5
Atom 125H    basis set group =>   5
Atom 126H    basis set group =>   5
Atom 127H    basis set group =>   5
Atom 128H    basis set group =>   5
Atom 129H    basis set group =>   5
Atom 130H    basis set group =>   5
Atom 131H    basis set group =>   5
Atom 132H    basis set group =>   5
Atom 133H    basis set group =>   5
Atom 134H    basis set group =>   5
Atom 135H    basis set group =>   5
Atom 136H    basis set group =>   5
---------------------------------
AUXILIARY/J BASIS SET INFORMATION
---------------------------------
There are 5 groups of distinct atoms

 Group   1 Type Mg  : 14s5p5d2f1g contracted to 8s4p4d1f1g pattern {71111111/2111/2111/2/1}
 Group   2 Type C   : 12s5p4d2f1g contracted to 6s4p3d1f1g pattern {711111/2111/211/2/1}
 Group   3 Type N   : 12s5p4d2f1g contracted to 6s4p3d1f1g pattern {711111/2111/211/2/1}
 Group   4 Type O   : 12s5p4d2f1g contracted to 6s4p3d1f1g pattern {711111/2111/211/2/1}
 Group   5 Type H   : 5s2p1d contracted to 3s1p1d pattern {311/2/1}

Atom   0Mg   basis set group =>   1
Atom   1C    basis set group =>   2
Atom   2C    basis set group =>   2
Atom   3C    basis set group =>   2
Atom   4C    basis set group =>   2
Atom   5N    basis set group =>   3
Atom   6C    basis set group =>   2
Atom   7C    basis set group =>   2
Atom   8C    basis set group =>   2
Atom   9C    basis set group =>   2
Atom  10C    basis set group =>   2
Atom  11C    basis set group =>   2
Atom  12C    basis set group =>   2
Atom  13C    basis set group =>   2
Atom  14O    basis set group =>   4
Atom  15O    basis set group =>   4
Atom  16N    basis set group =>   3
Atom  17C    basis set group =>   2
Atom  18C    basis set group =>   2
Atom  19C    basis set group =>   2
Atom  20C    basis set group =>   2
Atom  21C    basis set group =>   2
Atom  22C    basis set group =>   2
Atom  23C    basis set group =>   2
Atom  24N    basis set group =>   3
Atom  25C    basis set group =>   2
Atom  26C    basis set group =>   2
Atom  27C    basis set group =>   2
Atom  28C    basis set group =>   2
Atom  29C    basis set group =>   2
Atom  30C    basis set group =>   2
Atom  31C    basis set group =>   2
Atom  32N    basis set group =>   3
Atom  33C    basis set group =>   2
Atom  34C    basis set group =>   2
Atom  35C    basis set group =>   2
Atom  36C    basis set group =>   2
Atom  37C    basis set group =>   2
Atom  38C    basis set group =>   2
Atom  39O    basis set group =>   4
Atom  40C    basis set group =>   2
Atom  41C    basis set group =>   2
Atom  42O    basis set group =>   4
Atom  43O    basis set group =>   4
Atom  44C    basis set group =>   2
Atom  45C    basis set group =>   2
Atom  46C    basis set group =>   2
Atom  47C    basis set group =>   2
Atom  48C    basis set group =>   2
Atom  49C    basis set group =>   2
Atom  50C    basis set group =>   2
Atom  51C    basis set group =>   2
Atom  52C    basis set group =>   2
Atom  53C    basis set group =>   2
Atom  54C    basis set group =>   2
Atom  55C    basis set group =>   2
Atom  56C    basis set group =>   2
Atom  57C    basis set group =>   2
Atom  58C    basis set group =>   2
Atom  59C    basis set group =>   2
Atom  60C    basis set group =>   2
Atom  61C    basis set group =>   2
Atom  62C    basis set group =>   2
Atom  63C    basis set group =>   2
Atom  64C    basis set group =>   2
Atom  65H    basis set group =>   5
Atom  66H    basis set group =>   5
Atom  67H    basis set group =>   5
Atom  68H    basis set group =>   5
Atom  69H    basis set group =>   5
Atom  70H    basis set group =>   5
Atom  71H    basis set group =>   5
Atom  72H    basis set group =>   5
Atom  73H    basis set group =>   5
Atom  74H    basis set group =>   5
Atom  75H    basis set group =>   5
Atom  76H    basis set group =>   5
Atom  77H    basis set group =>   5
Atom  78H    basis set group =>   5
Atom  79H    basis set group =>   5
Atom  80H    basis set group =>   5
Atom  81H    basis set group =>   5
Atom  82H    basis set group =>   5
Atom  83H    basis set group =>   5
Atom  84H    basis set group =>   5
Atom  85H    basis set group =>   5
Atom  86H    basis set group =>   5
Atom  87H    basis set group =>   5
Atom  88H    basis set group =>   5
Atom  89H    basis set group =>   5
Atom  90H    basis set group =>   5
Atom  91H    basis set group =>   5
Atom  92H    basis set group =>   5
Atom  93H    basis set group =>   5
Atom  94H    basis set group =>   5
Atom  95H    basis set group =>   5
Atom  96H    basis set group =>   5
Atom  97H    basis set group =>   5
Atom  98H    basis set group =>   5
Atom  99H    basis set group =>   5
Atom 100H    basis set group =>   5
Atom 101H    basis set group =>   5
Atom 102H    basis set group =>   5
Atom 103H    basis set group =>   5
Atom 104H    basis set group =>   5
Atom 105H    basis set group =>   5
Atom 106H    basis set group =>   5
Atom 107H    basis set group =>   5
Atom 108H    basis set group =>   5
Atom 109H    basis set group =>   5
Atom 110H    basis set group =>   5
Atom 111H    basis set group =>   5
Atom 112H    basis set group =>   5
Atom 113H    basis set group =>   5
Atom 114H    basis set group =>   5
Atom 115H    basis set group =>   5
Atom 116H    basis set group =>   5
Atom 117H    basis set group =>   5
Atom 118H    basis set group =>   5
Atom 119H    basis set group =>   5
Atom 120H    basis set group =>   5
Atom 121H    basis set group =>   5
Atom 122H    basis set group =>   5
Atom 123H    basis set group =>   5
Atom 124H    basis set group =>   5
Atom 125H    basis set group =>   5
Atom 126H    basis set group =>   5
Atom 127H    basis set group =>   5
Atom 128H    basis set group =>   5
Atom 129H    basis set group =>   5
Atom 130H    basis set group =>   5
Atom 131H    basis set group =>   5
Atom 132H    basis set group =>   5
Atom 133H    basis set group =>   5
Atom 134H    basis set group =>   5
Atom 135H    basis set group =>   5
Atom 136H    basis set group =>   5


           ************************************************************
           *        Program running with 4 parallel MPI-processes     *
           *              working on a common directory               *
           ************************************************************
------------------------------------------------------------------------------
                             ORCA STARTUP CALCULATIONS
                           -- RI-GTO INTEGRALS CHOSEN --
------------------------------------------------------------------------------
------------------------------------------------------------------------------
                   ___                                                        
                  /   \      - P O W E R E D   B Y -                         
                 /     \                                                     
                 |  |  |   _    _      __       _____    __    __             
                 |  |  |  | |  | |    /  \     |  _  \  |  |  /  |          
                  \  \/   | |  | |   /    \    | | | |  |  | /  /          
                 / \  \   | |__| |  /  /\  \   | |_| |  |  |/  /          
                |  |  |   |  __  | /  /__\  \  |    /   |      \           
                |  |  |   | |  | | |   __   |  |    \   |  |\   \          
                \     /   | |  | | |  |  |  |  | |\  \  |  | \   \       
                 \___/    |_|  |_| |__|  |__|  |_| \__\ |__|  \__/        
                                                                              
                      - O R C A' S   B I G   F R I E N D -                    
                                      &                                       
                       - I N T E G R A L  F E E D E R -                       
                                                                              
 v1 FN, 2020, v2 2021, v3 2022-2024                                           
------------------------------------------------------------------------------


----------------------
SHARK INTEGRAL PACKAGE
----------------------

Number of atoms                             ...    137
Number of basis functions                   ...   2448
Number of shells                            ...   1004
Maximum angular momentum                    ...      3
Integral batch strategy                     ... SHARK/LIBINT Hybrid
RI-J (if used) integral strategy            ... SPLIT-RIJ (Revised 2003 algorithm where possible)
Printlevel                                  ...      1
Contraction scheme used                     ... SEGMENTED contraction
Prescreening option                         ... SCHWARTZ
   Thresh                                   ... 2.500e-11
   Tcut                                     ... 2.500e-12
   Tpresel                                  ... 2.500e-12 
Coulomb Range Separation                    ... NOT USED
Exchange Range Separation                   ... Long Range
   Mu parameter                             ... 3.300e-01
   Scaling (regular/separated)              ... 1.900e-01 4.600e-01
Robust (split-)RI terms used:
  metric    (central integrals)             ... YES
  density   (r.h.s.  integrals)             ... YES
  potential (l.h.s.  integrals)             ... YES
Multipole approximations                    ... NOT USED
Finite Nucleus Model                        ... NOT USED
CABS basis                                  ... NOT available
Auxiliary Coulomb fitting basis             ... AVAILABLE
   # of basis functions in Aux-J            ...   3984
   # of shells in Aux-J                     ...   1338
   Maximum angular momentum in Aux-J        ...      4
Auxiliary J/K fitting basis                 ... NOT available
Auxiliary Correlation fitting basis         ... NOT available
Auxiliary 'external' fitting basis          ... NOT available

Checking pre-screening integrals            ... done (  0.0 sec) Dimension = 1004
   => SHARK Basis and OBASIS are compatible. Storing Pre-screening
Shell pair information
Shell pair cut-off parameter TPreSel        ...   2.5e-12
Total number of shell pairs                 ...    504510
Shell pairs after pre-screening             ...    146480
Total number of primitive shell pairs       ...   1511112
Primitive shell pairs kept                  ...    279455
          la=0 lb=0:  40911 shell pairs
          la=1 lb=0:  44353 shell pairs
          la=1 lb=1:  12180 shell pairs
          la=2 lb=0:  19510 shell pairs
          la=2 lb=1:  10927 shell pairs
          la=2 lb=2:   2499 shell pairs
          la=3 lb=0:   8664 shell pairs
          la=3 lb=1:   4889 shell pairs
          la=3 lb=2:   2077 shell pairs
          la=3 lb=3:    470 shell pairs

Checking whether 4 symmetric matrices of dimension 2448 fit in memory
:Max Core in MB      =   2200.00
 MB in use           =    175.73
 MB left             =   2024.27
 MB needed           =     91.48
 Data fit in memory  = YES
Calculating RI/J V-Matrix + Cholesky decomp.... done (  1.9 sec)
Calculating Nuclear repulsion               ... done (  0.0 sec) ENN=   8806.212563571489 Eh

Diagonalization of the overlap matrix:
Smallest eigenvalue                        ... 3.523e-06
Time for diagonalization                   ...    2.761 sec
Threshold for overlap eigenvalues          ... 1.000e-07
Number of eigenvalues below threshold      ... 0
Time for construction of square roots      ...    3.343 sec
Total time needed                          ...    6.170 sec

-------------------
DFT GRID GENERATION
-------------------

General Integration Accuracy     IntAcc      ... 4.959
Radial Grid Type                 RadialGrid  ... OptM3 with GC (2021)
Angular Grid (max. ang.)         AngularGrid ... 6 (Lebedev-590)
Angular grid pruning method      GridPruning ... 4 (adaptive)
Weight generation scheme         WeightScheme... mBecke (2022)
Basis function cutoff            BFCut       ... 1.0000e-11
Integration weight cutoff        WCut        ... 1.0000e-14
Partially contracted basis set               ... off
Rotationally invariant grid construction     ... off
Angular grids for H and He will be reduced by one unit

Total number of grid points                  ...  1524069
Total number of batches                      ...    23877
Average number of points per batch           ...       63
Average number of grid points per atom       ...    11125

--------------------
COSX GRID GENERATION
--------------------

GRIDX 1
-------
General Integration Accuracy     IntAcc      ... 4.020
Radial Grid Type                 RadialGrid  ... OptM3 with GC (2021)
Angular Grid (max. ang.)         AngularGrid ... 2 (Lebedev-110)
Angular grid pruning method      GridPruning ... 4 (adaptive)
Weight generation scheme         WeightScheme... mBecke (2022)
Basis function cutoff            BFCut       ... 1.0000e-11
Integration weight cutoff        WCut        ... 1.0000e-14
Partially contracted basis set               ... on
Rotationally invariant grid construction     ... off
Angular grids for H and He will be reduced by one unit

Total number of grid points                  ...   164449
Total number of batches                      ...     1364
Average number of points per batch           ...      120
Average number of grid points per atom       ...     1200
UseSFitting                                  ... on

GRIDX 2
-------
General Integration Accuracy     IntAcc      ... 4.338
Radial Grid Type                 RadialGrid  ... OptM3 with GC (2021)
Angular Grid (max. ang.)         AngularGrid ... 3 (Lebedev-194)
Angular grid pruning method      GridPruning ... 4 (adaptive)
Weight generation scheme         WeightScheme... mBecke (2022)
Basis function cutoff            BFCut       ... 1.0000e-11
Integration weight cutoff        WCut        ... 1.0000e-14
Partially contracted basis set               ... on
Rotationally invariant grid construction     ... off
Angular grids for H and He will be reduced by one unit

Total number of grid points                  ...   357572
Total number of batches                      ...     2863
Average number of points per batch           ...      124
Average number of grid points per atom       ...     2610
UseSFitting                                  ... on

GRIDX 3
-------
General Integration Accuracy     IntAcc      ... 4.871
Radial Grid Type                 RadialGrid  ... OptM3 with GC (2021)
Angular Grid (max. ang.)         AngularGrid ... 4 (Lebedev-302)
Angular grid pruning method      GridPruning ... 4 (adaptive)
Weight generation scheme         WeightScheme... mBecke (2022)
Basis function cutoff            BFCut       ... 1.0000e-11
Integration weight cutoff        WCut        ... 1.0000e-14
Partially contracted basis set               ... on
Rotationally invariant grid construction     ... off
Angular grids for H and He will be reduced by one unit

Total number of grid points                  ...   678711
Total number of batches                      ...     5378
Average number of points per batch           ...      126
Average number of grid points per atom       ...     4954
UseSFitting                                  ... on
Grids setup in  71.1 sec
Initializing property integral containers    ... done (  0.0 sec)

SHARK setup successfully completed in  83.5 seconds

Maximum memory used throughout the entire STARTUP-calculation: 524.3 MB


           ************************************************************
           *        Program running with 4 parallel MPI-processes     *
           *              working on a common directory               *
           ************************************************************
-------------------------------------------------------------------------------
                                 ORCA GUESS
                   Start orbitals & Density for SCF / CASSCF
-------------------------------------------------------------------------------

------------
SCF SETTINGS
------------
Hamiltonian:
 Density Functional     Method          .... DFT(GTOs)
 Exchange Functional    Exchange        .... WB88
 Correlation Functional Correlation     .... LYP
 LDA part of GGA corr.  LDAOpt          .... VWN-5
 Gradients option       PostSCFGGA      .... off
 Hybrid DFT is turned on
   Fraction HF Exchange ScalHFX         ....  0.190000
   Scaling of DF-GGA-X  ScalDFX         ....  0.350000
   Scaling of DF-GGA-C  ScalDFC         ....  0.810000
   Scaling of DF-LDA-C  ScalLDAC        ....  1.000000
   Perturbative correction              ....  0.000000
 Long-range corrected/Screened/Range-Separated Hybrid DFT is turned on
   Amount of maximum screened exact exchange              ....  0.460000
   Range separation parameter mu (erf(mu*r12)/r12)        ....  0.330000
 RI-approximation to the Coulomb term is turned on
   Number of AuxJ basis functions       .... 3984
   RIJ-COSX (HFX calculated with COS-X)).... on


General Settings:
 Integral files         IntName         .... tddft
 Hartree-Fock type      HFTyp           .... RHF
 Total Charge           Charge          ....    0
 Multiplicity           Mult            ....    1
 Number of Electrons    NEL             ....  482
 Basis Dimension        Dim             .... 2448
 Nuclear Repulsion      ENuc            ....   8806.2125635715 Eh

Convergence Acceleration:
 AO-DIIS                CNVDIIS         .... on
   Start iteration      DIISMaxIt       ....    12
   Startup error        DIISStart       ....  0.200000
   # of expansion vecs  DIISMaxEq       ....     5
   Bias factor          DIISBfac        ....   1.050
   Max. coefficient     DIISMaxC        ....  10.000
 MO-DIIS                CNVKDIIS        .... off
 Trust-Rad. Augm. Hess. CNVTRAH         .... auto
   Auto Start mean grad. ratio tolernc. ....  1.125000
   Auto Start start iteration           ....    50
   Auto Start num. interpolation iter.  ....    10
   Max. Number of Micro iterations      ....    24
   Max. Number of Macro iterations      .... Maxiter - #DIIS iter
   Number of Davidson start vectors     ....     2
   Converg. threshold    (grad. norm)   ....   1.000e-05
   Grad. Scal. Fac. for Micro threshold ....   0.100
   Minimum threshold for Micro iter.    ....   1.000e-02
   NR start threshold (gradient norm)   ....   1.000e-04
   Initial trust radius                 ....   0.400
   Minimum AH scaling param. (alpha)    ....   1.000
   Maximum AH scaling param. (alpha)    .... 1000.000
   Quad. conv. algorithm                .... NR
   White noise on init. David. guess    .... on
   Maximum white noise                  ....   0.010
   Pseudo random numbers                .... off
   Inactive MOs                         .... canonical
   Orbital update algorithm             .... Taylor
   Preconditioner                       .... Diag
   Full preconditioner red. dimension   ....   250
 SOSCF                 CNVSOSCF           .... on
   Start iteration     SOSCFMaxIt         ....   150
   Startup grad/error  SOSCFStart         ....  0.003300
   Hessian update      SOSCFHessUp        .... L-BFGS
   Autom. constraints  SOSCFAutoConstrain .... off
 Level Shifting         CNVShift        .... on
   Level shift para.    LevelShift      ....    0.2500
   Turn off err/grad.   ShiftErr        ....    0.0010
 Zerner damping         CNVZerner       .... off
 Static damping         CNVDamp         .... on
   Fraction old density DampFac         ....    0.7000
   Max. Damping (<1)    DampMax         ....    0.9800
   Min. Damping (>=0)   DampMin         ....    0.0000
   Turn off err/grad.   DampErr         ....    0.1000

SCF Procedure:
 Maximum # iterations   MaxIter         ....   125
 SCF integral mode      SCFMode         .... Direct
   Integral package                     .... SHARK and LIBINT hybrid scheme
 Reset frequency        DirectResetFreq ....    20
 Integral Threshold     Thresh          ....  2.500e-11 Eh
 Primitive CutOff       TCut            ....  2.500e-12 Eh

Convergence Tolerance:
 Convergence Check Mode ConvCheckMode   .... Total+1el-Energy
 Convergence forced     ConvForced      .... 1
 Energy Change          TolE            ....  1.000e-08 Eh
 1-El. energy change                    ....  1.000e-05 Eh
 Orbital Gradient       TolG            ....  1.000e-05
 Orbital Rotation angle TolX            ....  1.000e-05
 DIIS Error             TolErr          ....  5.000e-07

------------------------------
INITIAL GUESS: MODEL POTENTIAL
------------------------------
Loading Hartree-Fock densities                     ... done
Calculating cut-offs                               ... done
Initializing the effective Hamiltonian             ... done
Setting up the integral package (SHARK)            ... done
Starting the Coulomb interaction                   ... done (  16.2 sec)
Making the grid                                    ... done (   3.1 sec)
Mapping shells                                     ... done
Starting the XC term evaluation                    ... done (   3.0 sec)
  promolecular density results
     # of electrons  =    481.975676764
     EX              =   -385.790702513
     EC              =    -16.191639786
     EX+EC           =   -401.982342299
Transforming the Hamiltonian                       ... done (   1.9 sec)
Diagonalizing the Hamiltonian                      ... done (   2.6 sec)
Back transforming the eigenvectors                 ... done (   1.3 sec)
Now organizing SCF variables                       ... done
                      ------------------
                      INITIAL GUESS DONE (  29.2 sec)
                      ------------------
             **** ENERGY FILE WAS UPDATED (tddft.en.tmp) ****
Finished Guess after  36.4 sec
Maximum memory used throughout the entire GUESS-calculation: 332.6 MB


           ************************************************************
           *        Program running with 4 parallel MPI-processes     *
           *              working on a common directory               *
           ************************************************************

-------------------------------------------------------------------------------------------
                                      ORCA LEAN-SCF
                              memory conserving SCF solver
-------------------------------------------------------------------------------------------

--------------------
CPCM SOLVATION MODEL
--------------------
CPCM parameters:
  Epsilon                                         ...       8.9990
  Refrac                                          ...       1.4242
  Rsolv                                           ...       1.3000
  Surface type                                    ... GAUSSIAN VDW
  Discretization scheme                           ... Constant charge density
    Threshold for H atoms                         ...       5.0000 (charges/Ang^2)
    Threshold for non-H atoms                     ...       5.0000 (charges/Ang^2)
  Epsilon function type                           ...         CPCM
Solvent:                                          ... DICHLOROMETHANE
Radii:
  Scheme                                          ... Element-dependent radii
  Radius for Mg used is    3.9231 Bohr (=   2.0760 Ang.)
  Radius for C  used is    3.8550 Bohr (=   2.0400 Ang.)
  Radius for N  used is    3.5149 Bohr (=   1.8600 Ang.)
  Radius for O  used is    3.4469 Bohr (=   1.8240 Ang.)
  Radius for H  used is    2.4944 Bohr (=   1.3200 Ang.)
Calculating surface                               ...        done! (  0.1s)
Cavity surface points                             ...        10901
Cavity Volume                                     ...    7471.3652
Cavity Surface-area                               ...    3694.6092
Calculating surface distance matrix               ...        done! (  2.3s)
Performing Cholesky decomposition & store         ...        done! ( 22.5s)
Overall time for CPCM initialization              ...                24.9s

----------------------------------------D-I-I-S--------------------------------------------
Iteration    Energy (Eh)           Delta-E    RMSDP     MaxDP     DIISErr   Damp  Time(sec)
-------------------------------------------------------------------------------------------
               ***  Starting incremental Fock matrix formation  ***
    1    -2932.5151905124694167     0.00e+00  1.66e-03  1.62e-01  2.73e-01  0.700 1001.6
    2    -2933.2262265069493878    -7.11e-01  1.50e-03  2.04e-01  1.25e-01  0.700 438.2
                               ***Turning on AO-DIIS***
    3    -2933.5642747718811734    -3.38e-01  8.13e-04  9.08e-02  4.73e-02  0.700 426.1
    4    -2933.7640445480064955    -2.00e-01  1.68e-03  1.62e-01  3.31e-02  0.000 409.2
    5    -2934.1926037255670963    -4.29e-01  1.61e-04  2.09e-02  5.10e-03  0.000 446.2
    6    -2934.1938389657243533    -1.24e-03  5.98e-05  5.10e-03  3.64e-03  0.000 349.5
                              *** Initializing SOSCF ***
---------------------------------------S-O-S-C-F--------------------------------------
Iteration    Energy (Eh)           Delta-E    RMSDP     MaxDP     MaxGrad    Time(sec)
--------------------------------------------------------------------------------------
    7    -2934.1940597285229160    -2.21e-04  3.22e-05  1.45e-03  7.64e-04   318.6
               *** Restarting incremental Fock matrix formation ***
    8    -2934.1941249066512682    -6.52e-05  7.98e-05  6.25e-03  1.16e-03  1216.4
    9    -2934.1941895785021188    -6.47e-05  7.15e-05  4.54e-03  5.61e-04   864.4
   10    -2934.1942183371938881    -2.88e-05  5.29e-05  4.25e-03  1.58e-04   867.8
   11    -2934.1942272742580826    -8.94e-06  1.49e-05  1.11e-03  1.04e-04   792.9
   12    -2934.1942282512391103    -9.77e-07  1.14e-05  7.96e-04  4.31e-05   662.4
   13    -2934.1942289259113750    -6.75e-07  1.05e-05  9.89e-04  2.81e-05   614.9
   14    -2934.1942290106435394    -8.47e-08  5.37e-06  5.31e-04  1.46e-05   573.2
   15    -2934.1942290940733074    -8.34e-08  1.06e-05  1.09e-03  6.64e-06   554.1
   16    -2934.1942290327533556     6.13e-08  6.62e-06  8.54e-04  4.19e-06   631.7
   17    -2934.1942289370017534     9.58e-08  1.06e-05  2.15e-03  1.96e-06   584.5
                  *** Gradient check signals convergence ***

               *****************************************************
               *                     SUCCESS                       *
               *           SCF CONVERGED AFTER  17 CYCLES          *
               *****************************************************

Recomputing exchange energy using gridx3       ... done ( 2277.398 sec)
Old exchange energy                            :   -112.699569160 Eh
New exchange energy                            :   -112.699571588 Eh
Exchange energy change after final integration :     -0.000002427 Eh
Total energy after final integration           :  -2934.194231364 Eh
             **** ENERGY FILE WAS UPDATED (tddft.en.tmp) ****

----------------
TOTAL SCF ENERGY
----------------

Total Energy       :      -2934.19423136446494 Eh          -79843.48420 eV

Components:
Nuclear Repulsion  :       8806.21256357148923 Eh          239629.22637 eV
Electronic Energy  :     -11740.36644353045449 Eh         -319471.61255 eV
One Electron Energy:     -21531.69122929557489 Eh         -585907.10529 eV
Two Electron Energy:       9791.32478576512040 Eh          266435.49274 eV
CPCM Dielectric    :         -0.04034897826573 Eh              -1.09795 eV

Virial components:
Potential Energy   :      -5854.88491962905937 Eh         -159319.51831 eV
Kinetic Energy     :       2920.69068826459397 Eh           79476.03411 eV
Virial Ratio       :          2.00462340745432

DFT components:
N(Alpha)           :      241.000001132708 electrons
N(Beta)            :      241.000001132708 electrons
N(Total)           :      482.000002265416 electrons
E(XC)              :     -299.479306317059 Eh       

CPCM Solvation Model Properties:
Surface-charge          :         -0.07910071310214
Corrected charge        :          0.00000000000000
Outlying charge corr.   :          0.00016182444078 Eh               0.00440 eV
Free-energy (cav+disp)  :  This term is not implemented in the current solvation scheme

---------------
SCF CONVERGENCE
---------------

  Last Energy change         ...   -9.5752e-08  Tolerance :   1.0000e-08
  Last MAX-Density change    ...    2.1492e-03  Tolerance :   1.0000e-07
  Last RMS-Density change    ...    1.0593e-05  Tolerance :   5.0000e-09
  Last DIIS Error            ...    7.6390e-04  Tolerance :   5.0000e-07
  Last Orbital Gradient      ...    1.9602e-06  Tolerance :   1.0000e-05
  Last Orbital Rotation      ...    3.8499e-05  Tolerance :   1.0000e-05


----------------
ORBITAL ENERGIES
----------------

  NO   OCC          E(Eh)            E(eV) 
   0   2.0000     -46.835275     -1274.4526 
   1   2.0000     -19.252924      -523.8987 
   2   2.0000     -19.245481      -523.6961 
   3   2.0000     -19.197626      -522.3940 
   4   2.0000     -19.197447      -522.3891 
   5   2.0000     -19.193032      -522.2689 
   6   2.0000     -14.397259      -391.7693 
   7   2.0000     -14.376803      -391.2127 
   8   2.0000     -14.375828      -391.1862 
   9   2.0000     -14.374622      -391.1533 
  10   2.0000     -10.388036      -282.6728 
  11   2.0000     -10.381661      -282.4994 
  12   2.0000     -10.352882      -281.7163 
  13   2.0000     -10.299268      -280.2573 
  14   2.0000     -10.295890      -280.1654 
  15   2.0000     -10.293925      -280.1119 
  16   2.0000     -10.293010      -280.0870 
  17   2.0000     -10.290035      -280.0061 
  18   2.0000     -10.283575      -279.8303 
  19   2.0000     -10.278387      -279.6891 
  20   2.0000     -10.277556      -279.6665 
  21   2.0000     -10.277397      -279.6622 
  22   2.0000     -10.276968      -279.6505 
  23   2.0000     -10.275389      -279.6076 
  24   2.0000     -10.273634      -279.5598 
  25   2.0000     -10.263433      -279.2822 
  26   2.0000     -10.257958      -279.1332 
  27   2.0000     -10.257234      -279.1135 
  28   2.0000     -10.257233      -279.1135 
  29   2.0000     -10.256754      -279.1005 
  30   2.0000     -10.256332      -279.0890 
  31   2.0000     -10.256238      -279.0864 
  32   2.0000     -10.255488      -279.0660 
  33   2.0000     -10.255050      -279.0541 
  34   2.0000     -10.254306      -279.0338 
  35   2.0000     -10.247603      -278.8515 
  36   2.0000     -10.245824      -278.8030 
  37   2.0000     -10.244976      -278.7800 
  38   2.0000     -10.243592      -278.7423 
  39   2.0000     -10.242742      -278.7192 
  40   2.0000     -10.242633      -278.7162 
  41   2.0000     -10.241833      -278.6944 
  42   2.0000     -10.240808      -278.6666 
  43   2.0000     -10.239636      -278.6347 
  44   2.0000     -10.237144      -278.5668 
  45   2.0000     -10.236637      -278.5531 
  46   2.0000     -10.236561      -278.5510 
  47   2.0000     -10.236450      -278.5480 
  48   2.0000     -10.236269      -278.5430 
  49   2.0000     -10.234995      -278.5084 
  50   2.0000     -10.234951      -278.5072 
  51   2.0000     -10.234177      -278.4861 
  52   2.0000     -10.232135      -278.4305 
  53   2.0000     -10.229936      -278.3707 
  54   2.0000     -10.227928      -278.3161 
  55   2.0000     -10.225940      -278.2620 
  56   2.0000     -10.225768      -278.2573 
  57   2.0000     -10.225608      -278.2530 
  58   2.0000     -10.225502      -278.2501 
  59   2.0000     -10.225329      -278.2453 
  60   2.0000     -10.225264      -278.2436 
  61   2.0000     -10.221719      -278.1471 
  62   2.0000     -10.221321      -278.1363 
  63   2.0000     -10.221037      -278.1286 
  64   2.0000     -10.220327      -278.1092 
  65   2.0000      -3.124021       -85.0089 
  66   2.0000      -1.871149       -50.9166 
  67   2.0000      -1.866194       -50.7817 
  68   2.0000      -1.865695       -50.7681 
  69   2.0000      -1.200168       -32.6582 
  70   2.0000      -1.192646       -32.4535 
  71   2.0000      -1.136986       -30.9390 
  72   2.0000      -1.111376       -30.2421 
  73   2.0000      -1.105644       -30.0861 
  74   2.0000      -1.054254       -28.6877 
  75   2.0000      -1.045063       -28.4376 
  76   2.0000      -1.041218       -28.3330 
  77   2.0000      -1.031381       -28.0653 
  78   2.0000      -0.935151       -25.4467 
  79   2.0000      -0.914035       -24.8722 
  80   2.0000      -0.904910       -24.6238 
  81   2.0000      -0.903025       -24.5726 
  82   2.0000      -0.898638       -24.4532 
  83   2.0000      -0.895563       -24.3695 
  84   2.0000      -0.894300       -24.3351 
  85   2.0000      -0.885621       -24.0990 
  86   2.0000      -0.883107       -24.0306 
  87   2.0000      -0.882055       -24.0019 
  88   2.0000      -0.878360       -23.9014 
  89   2.0000      -0.864124       -23.5140 
  90   2.0000      -0.854275       -23.2460 
  91   2.0000      -0.846233       -23.0272 
  92   2.0000      -0.842843       -22.9349 
  93   2.0000      -0.833276       -22.6746 
  94   2.0000      -0.830448       -22.5976 
  95   2.0000      -0.822952       -22.3937 
  96   2.0000      -0.817030       -22.2325 
  97   2.0000      -0.811904       -22.0930 
  98   2.0000      -0.799849       -21.7650 
  99   2.0000      -0.788232       -21.4489 
 100   2.0000      -0.783692       -21.3254 
 101   2.0000      -0.776713       -21.1354 
 102   2.0000      -0.769388       -20.9361 
 103   2.0000      -0.762119       -20.7383 
 104   2.0000      -0.757104       -20.6018 
 105   2.0000      -0.756533       -20.5863 
 106   2.0000      -0.751627       -20.4528 
 107   2.0000      -0.745438       -20.2844 
 108   2.0000      -0.736456       -20.0400 
 109   2.0000      -0.731376       -19.9018 
 110   2.0000      -0.722625       -19.6636 
 111   2.0000      -0.707600       -19.2548 
 112   2.0000      -0.700525       -19.0623 
 113   2.0000      -0.692925       -18.8554 
 114   2.0000      -0.689791       -18.7702 
 115   2.0000      -0.678923       -18.4744 
 116   2.0000      -0.665174       -18.1003 
 117   2.0000      -0.660044       -17.9607 
 118   2.0000      -0.655993       -17.8505 
 119   2.0000      -0.649448       -17.6724 
 120   2.0000      -0.644130       -17.5277 
 121   2.0000      -0.638207       -17.3665 
 122   2.0000      -0.632681       -17.2161 
 123   2.0000      -0.632058       -17.1992 
 124   2.0000      -0.627574       -17.0772 
 125   2.0000      -0.619880       -16.8678 
 126   2.0000      -0.610829       -16.6215 
 127   2.0000      -0.609841       -16.5946 
 128   2.0000      -0.604556       -16.4508 
 129   2.0000      -0.598788       -16.2939 
 130   2.0000      -0.595658       -16.2087 
 131   2.0000      -0.592146       -16.1131 
 132   2.0000      -0.588225       -16.0064 
 133   2.0000      -0.585459       -15.9312 
 134   2.0000      -0.575429       -15.6582 
 135   2.0000      -0.571109       -15.5407 
 136   2.0000      -0.567503       -15.4425 
 137   2.0000      -0.562380       -15.3031 
 138   2.0000      -0.557246       -15.1634 
 139   2.0000      -0.555278       -15.1099 
 140   2.0000      -0.551896       -15.0179 
 141   2.0000      -0.547679       -14.9031 
 142   2.0000      -0.545567       -14.8456 
 143   2.0000      -0.543041       -14.7769 
 144   2.0000      -0.540877       -14.7180 
 145   2.0000      -0.534285       -14.5386 
 146   2.0000      -0.532229       -14.4827 
 147   2.0000      -0.525322       -14.2947 
 148   2.0000      -0.524078       -14.2609 
 149   2.0000      -0.523935       -14.2570 
 150   2.0000      -0.520570       -14.1654 
 151   2.0000      -0.514282       -13.9943 
 152   2.0000      -0.513252       -13.9663 
 153   2.0000      -0.511606       -13.9215 
 154   2.0000      -0.509386       -13.8611 
 155   2.0000      -0.507624       -13.8131 
 156   2.0000      -0.507290       -13.8041 
 157   2.0000      -0.504111       -13.7176 
 158   2.0000      -0.503350       -13.6968 
 159   2.0000      -0.502114       -13.6632 
 160   2.0000      -0.500830       -13.6283 
 161   2.0000      -0.497907       -13.5488 
 162   2.0000      -0.496185       -13.5019 
 163   2.0000      -0.490943       -13.3593 
 164   2.0000      -0.488196       -13.2845 
 165   2.0000      -0.486259       -13.2318 
 166   2.0000      -0.485815       -13.2197 
 167   2.0000      -0.482951       -13.1418 
 168   2.0000      -0.477371       -12.9899 
 169   2.0000      -0.474604       -12.9146 
 170   2.0000      -0.472176       -12.8486 
 171   2.0000      -0.470865       -12.8129 
 172   2.0000      -0.468956       -12.7609 
 173   2.0000      -0.466288       -12.6883 
 174   2.0000      -0.465721       -12.6729 
 175   2.0000      -0.464088       -12.6285 
 176   2.0000      -0.463186       -12.6039 
 177   2.0000      -0.460862       -12.5407 
 178   2.0000      -0.460284       -12.5250 
 179   2.0000      -0.459411       -12.5012 
 180   2.0000      -0.458139       -12.4666 
 181   2.0000      -0.455349       -12.3907 
 182   2.0000      -0.454908       -12.3787 
 183   2.0000      -0.453366       -12.3367 
 184   2.0000      -0.449460       -12.2304 
 185   2.0000      -0.444816       -12.1041 
 186   2.0000      -0.443757       -12.0752 
 187   2.0000      -0.442793       -12.0490 
 188   2.0000      -0.440575       -11.9887 
 189   2.0000      -0.440051       -11.9744 
 190   2.0000      -0.437774       -11.9124 
 191   2.0000      -0.435484       -11.8501 
 192   2.0000      -0.434109       -11.8127 
 193   2.0000      -0.432242       -11.7619 
 194   2.0000      -0.431816       -11.7503 
 195   2.0000      -0.430337       -11.7101 
 196   2.0000      -0.428668       -11.6647 
 197   2.0000      -0.425961       -11.5910 
 198   2.0000      -0.423400       -11.5213 
 199   2.0000      -0.421266       -11.4632 
 200   2.0000      -0.420692       -11.4476 
 201   2.0000      -0.418889       -11.3985 
 202   2.0000      -0.413983       -11.2650 
 203   2.0000      -0.412642       -11.2286 
 204   2.0000      -0.410597       -11.1729 
 205   2.0000      -0.410502       -11.1703 
 206   2.0000      -0.403781       -10.9874 
 207   2.0000      -0.402966       -10.9653 
 208   2.0000      -0.402088       -10.9414 
 209   2.0000      -0.401550       -10.9267 
 210   2.0000      -0.398559       -10.8453 
 211   2.0000      -0.392854       -10.6901 
 212   2.0000      -0.390283       -10.6201 
 213   2.0000      -0.389537       -10.5998 
 214   2.0000      -0.384509       -10.4630 
 215   2.0000      -0.381052       -10.3690 
 216   2.0000      -0.380844       -10.3633 
 217   2.0000      -0.378514       -10.2999 
 218   2.0000      -0.377970       -10.2851 
 219   2.0000      -0.376496       -10.2450 
 220   2.0000      -0.375397       -10.2151 
 221   2.0000      -0.374657       -10.1949 
 222   2.0000      -0.372660       -10.1406 
 223   2.0000      -0.371127       -10.0989 
 224   2.0000      -0.369274       -10.0485 
 225   2.0000      -0.369088       -10.0434 
 226   2.0000      -0.368670       -10.0320 
 227   2.0000      -0.362985        -9.8773 
 228   2.0000      -0.361110        -9.8263 
 229   2.0000      -0.355788        -9.6815 
 230   2.0000      -0.344407        -9.3718 
 231   2.0000      -0.342655        -9.3241 
 232   2.0000      -0.334287        -9.0964 
 233   2.0000      -0.326321        -8.8797 
 234   2.0000      -0.321499        -8.7484 
 235   2.0000      -0.310265        -8.4427 
 236   2.0000      -0.306123        -8.3300 
 237   2.0000      -0.291328        -7.9274 
 238   2.0000      -0.284819        -7.7503 
 239   2.0000      -0.241790        -6.5795 
 240   2.0000      -0.224085        -6.0977 
 241   0.0000      -0.075434        -2.0527 
 242   0.0000      -0.040244        -1.0951 
 243   0.0000       0.001876         0.0510 
 244   0.0000       0.028951         0.7878 
 245   0.0000       0.035953         0.9783 
 246   0.0000       0.045162         1.2289 
 247   0.0000       0.050775         1.3816 
 248   0.0000       0.052119         1.4182 
 249   0.0000       0.059693         1.6243 
 250   0.0000       0.066771         1.8169 
 251   0.0000       0.070635         1.9221 
*Only the first 10 virtual orbitals were printed.

                    ********************************
                    * MULLIKEN POPULATION ANALYSIS *
                    ********************************

-----------------------
MULLIKEN ATOMIC CHARGES
-----------------------
   0 Mg:    0.683408
   1 C :   -0.135556
   2 C :   -0.374346
   3 C :   -0.257131
   4 C :   -0.216538
   5 N :   -0.385761
   6 C :    0.261131
   7 C :   -0.052312
   8 C :    0.015691
   9 C :    0.142841
  10 C :   -0.429635
  11 C :   -0.297544
  12 C :   -0.238254
  13 C :    0.331500
  14 O :   -0.380347
  15 O :   -0.269338
  16 N :   -0.368537
  17 C :    0.253889
  18 C :   -0.009072
  19 C :    0.022674
  20 C :    0.192157
  21 C :   -0.465128
  22 C :   -0.182926
  23 C :   -0.341109
  24 N :   -0.366634
  25 C :    0.156302
  26 C :   -0.009679
  27 C :   -0.051781
  28 C :    0.222800
  29 C :   -0.444336
  30 C :   -0.275152
  31 C :   -0.375902
  32 N :   -0.396355
  33 C :    0.158440
  34 C :   -0.077195
  35 C :   -0.024715
  36 C :    0.166745
  37 C :   -0.446643
  38 C :    0.079752
  39 O :   -0.323598
  40 C :    0.021409
  41 C :    0.286367
  42 O :   -0.361094
  43 O :   -0.265737
  44 C :   -0.233933
  45 C :   -0.078379
  46 C :   -0.188505
  47 C :    0.043659
  48 C :   -0.411535
  49 C :   -0.206279
  50 C :   -0.260950
  51 C :   -0.226443
  52 C :    0.028421
  53 C :   -0.436685
  54 C :   -0.222122
  55 C :   -0.248659
  56 C :   -0.222335
  57 C :    0.032706
  58 C :   -0.437890
  59 C :   -0.222642
  60 C :   -0.245264
  61 C :   -0.217037
  62 C :    0.011175
  63 C :   -0.413919
  64 C :   -0.394932
  65 H :    0.155687
  66 H :    0.171741
  67 H :    0.183219
  68 H :    0.139942
  69 H :    0.115253
  70 H :    0.139189
  71 H :    0.136478
  72 H :    0.139460
  73 H :    0.136980
  74 H :    0.139287
  75 H :    0.148279
  76 H :    0.156863
  77 H :    0.142501
  78 H :    0.159641
  79 H :    0.163202
  80 H :    0.149499
  81 H :    0.151750
  82 H :    0.163731
  83 H :    0.152970
  84 H :    0.138902
  85 H :    0.147139
  86 H :    0.126167
  87 H :    0.128317
  88 H :    0.127983
  89 H :    0.128187
  90 H :    0.128313
  91 H :    0.155800
  92 H :    0.147758
  93 H :    0.158211
  94 H :    0.141261
  95 H :    0.148101
  96 H :    0.151125
  97 H :    0.155761
  98 H :    0.140527
  99 H :    0.126342
 100 H :    0.138240
 101 H :    0.139888
 102 H :    0.151931
 103 H :    0.135995
 104 H :    0.124830
 105 H :    0.119930
 106 H :    0.119500
 107 H :    0.117528
 108 H :    0.108542
 109 H :    0.109094
 110 H :    0.077605
 111 H :    0.132469
 112 H :    0.132510
 113 H :    0.117566
 114 H :    0.107507
 115 H :    0.104240
 116 H :    0.119726
 117 H :    0.100943
 118 H :    0.107018
 119 H :    0.103717
 120 H :    0.076106
 121 H :    0.117105
 122 H :    0.131544
 123 H :    0.133063
 124 H :    0.105863
 125 H :    0.105128
 126 H :    0.108417
 127 H :    0.110203
 128 H :    0.105565
 129 H :    0.103990
 130 H :    0.077706
 131 H :    0.116609
 132 H :    0.126217
 133 H :    0.130521
 134 H :    0.123781
 135 H :    0.126219
 136 H :    0.116417
Sum of atomic charges:   -0.0000000

--------------------------------
MULLIKEN REDUCED ORBITAL CHARGES
--------------------------------
  0 Mgs       :     4.582300  s :     4.582300
      pz      :     2.143010  p :     6.463447
      px      :     2.160830
      py      :     2.159608
      dz2     :     0.048099  d :     0.270844
      dxz     :     0.018044
      dyz     :     0.084763
      dx2y2   :     0.054314
      dxy     :     0.065625

  1 C s       :     3.333507  s :     3.333507
      pz      :     0.896263  p :     2.688012
      px      :     0.847948
      py      :     0.943801
      dz2     :     0.022577  d :     0.104194
      dxz     :     0.022832
      dyz     :     0.014127
      dx2y2   :     0.023179
      dxy     :     0.021478
      f0      :     0.001045  f :     0.009843
      f+1     :     0.001397
      f-1     :     0.001357
      f+2     :     0.002154
      f-2     :     0.001422
      f+3     :     0.001239
      f-3     :     0.001229

  2 C s       :     3.241777  s :     3.241777
      pz      :     1.072576  p :     3.066955
      px      :     1.009877
      py      :     0.984503
      dz2     :     0.008263  d :     0.058570
      dxz     :     0.015771
      dyz     :     0.008317
      dx2y2   :     0.016348
      dxy     :     0.009872
      f0      :     0.000648  f :     0.007044
      f+1     :     0.000464
      f-1     :     0.001248
      f+2     :     0.000744
      f-2     :     0.001630
      f+3     :     0.001285
      f-3     :     0.001026

  3 C s       :     3.184984  s :     3.184984
      pz      :     0.986955  p :     2.999884
      px      :     0.944365
      py      :     1.068564
      dz2     :     0.020335  d :     0.065290
      dxz     :     0.012503
      dyz     :     0.006720
      dx2y2   :     0.009999
      dxy     :     0.015733
      f0      :     0.000743  f :     0.006974
      f+1     :     0.001370
      f-1     :     0.000623
      f+2     :     0.001175
      f-2     :     0.001301
      f+3     :     0.001029
      f-3     :     0.000732

  4 C s       :     3.216037  s :     3.216037
      pz      :     0.987128  p :     2.919693
      px      :     1.045096
      py      :     0.887469
      dz2     :     0.009896  d :     0.073788
      dxz     :     0.019448
      dyz     :     0.010434
      dx2y2   :     0.022538
      dxy     :     0.011471
      f0      :     0.000721  f :     0.007020
      f+1     :     0.000377
      f-1     :     0.001214
      f+2     :     0.000754
      f-2     :     0.001610
      f+3     :     0.001424
      f-3     :     0.000920

  5 N s       :     3.699114  s :     3.699114
      pz      :     1.151788  p :     3.627138
      px      :     1.307484
      py      :     1.167866
      dz2     :     0.013601  d :     0.056049
      dxz     :     0.010031
      dyz     :     0.010289
      dx2y2   :     0.010944
      dxy     :     0.011184
      f0      :     0.000399  f :     0.003460
      f+1     :     0.000399
      f-1     :     0.000615
      f+2     :     0.000639
      f-2     :     0.000674
      f+3     :     0.000351
      f-3     :     0.000384

  6 C s       :     3.188018  s :     3.188018
      pz      :     0.821546  p :     2.381638
      px      :     0.797454
      py      :     0.762638
      dz2     :     0.040933  d :     0.155150
      dxz     :     0.024540
      dyz     :     0.017147
      dx2y2   :     0.035408
      dxy     :     0.037122
      f0      :     0.001328  f :     0.014063
      f+1     :     0.001502
      f-1     :     0.002270
      f+2     :     0.002975
      f-2     :     0.002019
      f+3     :     0.001921
      f-3     :     0.002047

  7 C s       :     3.197438  s :     3.197438
      pz      :     0.891730  p :     2.732737
      px      :     0.880837
      py      :     0.960170
      dz2     :     0.030496  d :     0.114185
      dxz     :     0.021594
      dyz     :     0.019183
      dx2y2   :     0.025173
      dxy     :     0.017739
      f0      :     0.001161  f :     0.007953
      f+1     :     0.001387
      f-1     :     0.000740
      f+2     :     0.001572
      f-2     :     0.001251
      f+3     :     0.000706
      f-3     :     0.001137

  8 C s       :     3.146291  s :     3.146291
      pz      :     0.891632  p :     2.709837
      px      :     0.921105
      py      :     0.897100
      dz2     :     0.032425  d :     0.120128
      dxz     :     0.022264
      dyz     :     0.022606
      dx2y2   :     0.016972
      dxy     :     0.025861
      f0      :     0.001491  f :     0.008052
      f+1     :     0.001010
      f-1     :     0.001617
      f+2     :     0.000722
      f-2     :     0.001440
      f+3     :     0.000616
      f-3     :     0.001157

  9 C s       :     3.203080  s :     3.203080
      pz      :     0.796880  p :     2.483053
      px      :     0.814203
      py      :     0.871970
      dz2     :     0.043361  d :     0.156735
      dxz     :     0.026259
      dyz     :     0.021188
      dx2y2   :     0.032348
      dxy     :     0.033579
      f0      :     0.001848  f :     0.014291
      f+1     :     0.001782
      f-1     :     0.002371
      f+2     :     0.002018
      f-2     :     0.002922
      f+3     :     0.002041
      f-3     :     0.001310

 10 C s       :     3.327362  s :     3.327362
      pz      :     0.955355  p :     3.048149
      px      :     1.070405
      py      :     1.022389
      dz2     :     0.015598  d :     0.050523
      dxz     :     0.006824
      dyz     :     0.010788
      dx2y2   :     0.002674
      dxy     :     0.014640
      f0      :     0.000607  f :     0.003600
      f+1     :     0.000290
      f-1     :     0.001301
      f+2     :     0.000225
      f-2     :     0.000440
      f+3     :     0.000095
      f-3     :     0.000642

 11 C s       :     3.288447  s :     3.288447
      pz      :     0.975906  p :     2.916854
      px      :     0.900926
      py      :     1.040022
      dz2     :     0.020532  d :     0.086479
      dxz     :     0.017830
      dyz     :     0.011879
      dx2y2   :     0.022512
      dxy     :     0.013726
      f0      :     0.000451  f :     0.005764
      f+1     :     0.001248
      f-1     :     0.000510
      f+2     :     0.001087
      f-2     :     0.000716
      f+3     :     0.000748
      f-3     :     0.001004

 12 C s       :     3.213707  s :     3.213707
      pz      :     0.973659  p :     2.945719
      px      :     0.913427
      py      :     1.058634
      dz2     :     0.013426  d :     0.073407
      dxz     :     0.022220
      dyz     :     0.007741
      dx2y2   :     0.017872
      dxy     :     0.012147
      f0      :     0.000512  f :     0.005421
      f+1     :     0.001296
      f-1     :     0.000466
      f+2     :     0.001008
      f-2     :     0.000553
      f+3     :     0.000705
      f-3     :     0.000880

 13 C s       :     3.112882  s :     3.112882
      pz      :     0.800549  p :     2.257478
      px      :     0.740912
      py      :     0.716018
      dz2     :     0.056480  d :     0.272718
      dxz     :     0.101749
      dyz     :     0.056711
      dx2y2   :     0.020023
      dxy     :     0.037756
      f0      :     0.004756  f :     0.025422
      f+1     :     0.008230
      f-1     :     0.003748
      f+2     :     0.002467
      f-2     :     0.002225
      f+3     :     0.001577
      f-3     :     0.002418

 14 O s       :     3.785835  s :     3.785835
      pz      :     1.351983  p :     4.563962
      px      :     1.778706
      py      :     1.433273
      dz2     :     0.009737  d :     0.028748
      dxz     :     0.007578
      dyz     :     0.010156
      dx2y2   :     0.000709
      dxy     :     0.000568
      f0      :     0.000543  f :     0.001801
      f+1     :     0.000526
      f-1     :     0.000542
      f+2     :     0.000091
      f-2     :     0.000085
      f+3     :     0.000008
      f-3     :     0.000006

 15 O s       :     3.763815  s :     3.763815
      pz      :     1.567052  p :     4.466451
      px      :     1.183753
      py      :     1.715646
      dz2     :     0.006034  d :     0.037083
      dxz     :     0.014617
      dyz     :     0.003878
      dx2y2   :     0.006683
      dxy     :     0.005872
      f0      :     0.000126  f :     0.001989
      f+1     :     0.000367
      f-1     :     0.000035
      f+2     :     0.000485
      f-2     :     0.000222
      f+3     :     0.000408
      f-3     :     0.000346

 16 N s       :     3.674929  s :     3.674929
      pz      :     1.294366  p :     3.635485
      px      :     1.103030
      py      :     1.238088
      dz2     :     0.008653  d :     0.054627
      dxz     :     0.010395
      dyz     :     0.009728
      dx2y2   :     0.013767
      dxy     :     0.012084
      f0      :     0.000374  f :     0.003497
      f+1     :     0.000621
      f-1     :     0.000261
      f+2     :     0.000382
      f-2     :     0.000717
      f+3     :     0.000496
      f-3     :     0.000645

 17 C s       :     3.145014  s :     3.145014
      pz      :     0.813473  p :     2.419307
      px      :     0.754316
      py      :     0.851518
      dz2     :     0.035208  d :     0.167059
      dxz     :     0.028533
      dyz     :     0.029290
      dx2y2   :     0.039929
      dxy     :     0.034100
      f0      :     0.001421  f :     0.014731
      f+1     :     0.002507
      f-1     :     0.001229
      f+2     :     0.001619
      f-2     :     0.003264
      f+3     :     0.002211
      f-3     :     0.002479

 18 C s       :     3.234956  s :     3.234956
      pz      :     0.867167  p :     2.630500
      px      :     0.878739
      py      :     0.884595
      dz2     :     0.029377  d :     0.133845
      dxz     :     0.025533
      dyz     :     0.021407
      dx2y2   :     0.035663
      dxy     :     0.021864
      f0      :     0.000962  f :     0.009771
      f+1     :     0.001287
      f-1     :     0.001235
      f+2     :     0.001495
      f-2     :     0.001981
      f+3     :     0.001919
      f-3     :     0.000892

 19 C s       :     3.214591  s :     3.214591
      pz      :     0.928202  p :     2.629061
      px      :     0.868677
      py      :     0.832183
      dz2     :     0.021714  d :     0.123657
      dxz     :     0.025175
      dyz     :     0.019307
      dx2y2   :     0.028137
      dxy     :     0.029325
      f0      :     0.001017  f :     0.010016
      f+1     :     0.001084
      f-1     :     0.001433
      f+2     :     0.001486
      f-2     :     0.001728
      f+3     :     0.001894
      f-3     :     0.001374

 20 C s       :     3.155813  s :     3.155813
      pz      :     0.876580  p :     2.476717
      px      :     0.831924
      py      :     0.768213
      dz2     :     0.028976  d :     0.160853
      dxz     :     0.028060
      dyz     :     0.030612
      dx2y2   :     0.043693
      dxy     :     0.029511
      f0      :     0.001500  f :     0.014460
      f+1     :     0.002302
      f-1     :     0.001145
      f+2     :     0.001528
      f-2     :     0.002638
      f+3     :     0.002121
      f-3     :     0.003227

 21 C s       :     3.411809  s :     3.411809
      pz      :     0.972552  p :     3.001001
      px      :     0.970109
      py      :     1.058340
      dz2     :     0.017909  d :     0.048840
      dxz     :     0.004763
      dyz     :     0.006037
      dx2y2   :     0.013167
      dxy     :     0.006965
      f0      :     0.000414  f :     0.003478
      f+1     :     0.000756
      f-1     :     0.000549
      f+2     :     0.000585
      f-2     :     0.000267
      f+3     :     0.000133
      f-3     :     0.000774

 22 C s       :     3.278253  s :     3.278253
      pz      :     0.930943  p :     2.822044
      px      :     1.007963
      py      :     0.883137
      dz2     :     0.012517  d :     0.075789
      dxz     :     0.020472
      dyz     :     0.020150
      dx2y2   :     0.011647
      dxy     :     0.011004
      f0      :     0.001388  f :     0.006840
      f+1     :     0.000945
      f-1     :     0.000980
      f+2     :     0.000788
      f-2     :     0.001429
      f+3     :     0.000530
      f-3     :     0.000781

 23 C s       :     3.310027  s :     3.310027
      pz      :     0.933542  p :     2.981788
      px      :     1.018011
      py      :     1.030235
      dz2     :     0.008697  d :     0.044496
      dxz     :     0.014604
      dyz     :     0.012096
      dx2y2   :     0.004451
      dxy     :     0.004648
      f0      :     0.001168  f :     0.004799
      f+1     :     0.000888
      f-1     :     0.000611
      f+2     :     0.000453
      f-2     :     0.001089
      f+3     :     0.000457
      f-3     :     0.000132

 24 N s       :     3.683257  s :     3.683257
      pz      :     1.193077  p :     3.622960
      px      :     1.265332
      py      :     1.164551
      dz2     :     0.013703  d :     0.056892
      dxz     :     0.009398
      dyz     :     0.009712
      dx2y2   :     0.011579
      dxy     :     0.012501
      f0      :     0.000354  f :     0.003524
      f+1     :     0.000485
      f-1     :     0.000561
      f+2     :     0.000614
      f-2     :     0.000639
      f+3     :     0.000407
      f-3     :     0.000462

 25 C s       :     3.158551  s :     3.158551
      pz      :     0.864553  p :     2.510298
      px      :     0.840264
      py      :     0.805482
      dz2     :     0.036072  d :     0.160223
      dxz     :     0.026531
      dyz     :     0.021701
      dx2y2   :     0.036592
      dxy     :     0.039327
      f0      :     0.001107  f :     0.014626
      f+1     :     0.001818
      f-1     :     0.002427
      f+2     :     0.002899
      f-2     :     0.002103
      f+3     :     0.001891
      f-3     :     0.002382

 26 C s       :     3.212775  s :     3.212775
      pz      :     0.922906  p :     2.652058
      px      :     0.893073
      py      :     0.836079
      dz2     :     0.028427  d :     0.135023
      dxz     :     0.021916
      dyz     :     0.020241
      dx2y2   :     0.038240
      dxy     :     0.026199
      f0      :     0.000898  f :     0.009823
      f+1     :     0.001282
      f-1     :     0.001353
      f+2     :     0.001244
      f-2     :     0.001758
      f+3     :     0.001354
      f-3     :     0.001933

 27 C s       :     3.274750  s :     3.274750
      pz      :     0.881827  p :     2.633893
      px      :     0.822839
      py      :     0.929227
      dz2     :     0.029592  d :     0.133223
      dxz     :     0.025479
      dyz     :     0.017682
      dx2y2   :     0.028434
      dxy     :     0.032035
      f0      :     0.001222  f :     0.009916
      f+1     :     0.001380
      f-1     :     0.001130
      f+2     :     0.001082
      f-2     :     0.002177
      f+3     :     0.001502
      f-3     :     0.001423

 28 C s       :     3.140628  s :     3.140628
      pz      :     0.855490  p :     2.468934
      px      :     0.784519
      py      :     0.828925
      dz2     :     0.035239  d :     0.153224
      dxz     :     0.026635
      dyz     :     0.022274
      dx2y2   :     0.037203
      dxy     :     0.031873
      f0      :     0.001673  f :     0.014414
      f+1     :     0.001749
      f-1     :     0.002075
      f+2     :     0.001985
      f-2     :     0.003070
      f+3     :     0.002258
      f-3     :     0.001604

 29 C s       :     3.397041  s :     3.397041
      pz      :     1.058544  p :     2.994938
      px      :     1.006274
      py      :     0.930120
      dz2     :     0.010784  d :     0.048905
      dxz     :     0.006618
      dyz     :     0.008150
      dx2y2   :     0.016100
      dxy     :     0.007254
      f0      :     0.001081  f :     0.003452
      f+1     :     0.000208
      f-1     :     0.000191
      f+2     :     0.000131
      f-2     :     0.000281
      f+3     :     0.000982
      f-3     :     0.000577

 30 C s       :     3.352599  s :     3.352599
      pz      :     0.905798  p :     2.828343
      px      :     0.912600
      py      :     1.009945
      dz2     :     0.023687  d :     0.088661
      dxz     :     0.025242
      dyz     :     0.012458
      dx2y2   :     0.014670
      dxy     :     0.012604
      f0      :     0.001048  f :     0.005550
      f+1     :     0.001127
      f-1     :     0.000622
      f+2     :     0.000975
      f-2     :     0.000912
      f+3     :     0.000267
      f-3     :     0.000598

 31 C s       :     3.286413  s :     3.286413
      pz      :     0.939856  p :     3.035459
      px      :     1.060383
      py      :     1.035220
      dz2     :     0.009877  d :     0.050446
      dxz     :     0.019543
      dyz     :     0.006558
      dx2y2   :     0.010624
      dxy     :     0.003845
      f0      :     0.000829  f :     0.003584
      f+1     :     0.000515
      f-1     :     0.000588
      f+2     :     0.000803
      f-2     :     0.000382
      f+3     :     0.000134
      f-3     :     0.000333

 32 N s       :     3.717260  s :     3.717260
      pz      :     1.289080  p :     3.620082
      px      :     1.087639
      py      :     1.243362
      dz2     :     0.008288  d :     0.055494
      dxz     :     0.011380
      dyz     :     0.009573
      dx2y2   :     0.014396
      dxy     :     0.011855
      f0      :     0.000371  f :     0.003519
      f+1     :     0.000613
      f-1     :     0.000279
      f+2     :     0.000405
      f-2     :     0.000705
      f+3     :     0.000471
      f-3     :     0.000676

 33 C s       :     3.140184  s :     3.140184
      pz      :     0.867695  p :     2.536545
      px      :     0.809225
      py      :     0.859625
      dz2     :     0.030273  d :     0.150603
      dxz     :     0.025994
      dyz     :     0.026124
      dx2y2   :     0.033878
      dxy     :     0.034334
      f0      :     0.001291  f :     0.014228
      f+1     :     0.002293
      f-1     :     0.001240
      f+2     :     0.001633
      f-2     :     0.003114
      f+3     :     0.002431
      f-3     :     0.002227

 34 C s       :     3.336185  s :     3.336185
      pz      :     0.868087  p :     2.593492
      px      :     0.850655
      py      :     0.874750
      dz2     :     0.022445  d :     0.137690
      dxz     :     0.028393
      dyz     :     0.025580
      dx2y2   :     0.036285
      dxy     :     0.024987
      f0      :     0.000838  f :     0.009828
      f+1     :     0.001419
      f-1     :     0.001419
      f+2     :     0.001660
      f-2     :     0.001723
      f+3     :     0.001667
      f-3     :     0.001102

 35 C s       :     3.177667  s :     3.177667
      pz      :     0.966311  p :     2.723777
      px      :     0.863649
      py      :     0.893818
      dz2     :     0.021086  d :     0.112661
      dxz     :     0.022819
      dyz     :     0.014325
      dx2y2   :     0.023778
      dxy     :     0.030653
      f0      :     0.001032  f :     0.010610
      f+1     :     0.001340
      f-1     :     0.001157
      f+2     :     0.001290
      f-2     :     0.001808
      f+3     :     0.002048
      f-3     :     0.001935

 36 C s       :     3.258431  s :     3.258431
      pz      :     0.828232  p :     2.385262
      px      :     0.837068
      py      :     0.719962
      dz2     :     0.029149  d :     0.173409
      dxz     :     0.030835
      dyz     :     0.032858
      dx2y2   :     0.050546
      dxy     :     0.030020
      f0      :     0.001660  f :     0.016153
      f+1     :     0.002152
      f-1     :     0.001493
      f+2     :     0.001556
      f-2     :     0.002860
      f+3     :     0.002682
      f-3     :     0.003751

 37 C s       :     3.410507  s :     3.410507
      pz      :     0.958585  p :     2.986966
      px      :     0.984596
      py      :     1.043785
      dz2     :     0.010718  d :     0.045764
      dxz     :     0.007262
      dyz     :     0.011271
      dx2y2   :     0.009483
      dxy     :     0.007029
      f0      :     0.000205  f :     0.003407
      f+1     :     0.000295
      f-1     :     0.000295
      f+2     :     0.001212
      f-2     :     0.001007
      f+3     :     0.000342
      f-3     :     0.000051

 38 C s       :     3.171294  s :     3.171294
      pz      :     0.796910  p :     2.520855
      px      :     0.901479
      py      :     0.822467
      dz2     :     0.038913  d :     0.209643
      dxz     :     0.042305
      dyz     :     0.032255
      dx2y2   :     0.044944
      dxy     :     0.051226
      f0      :     0.001693  f :     0.018456
      f+1     :     0.001045
      f-1     :     0.003867
      f+2     :     0.002353
      f-2     :     0.004134
      f+3     :     0.003007
      f-3     :     0.002357

 39 O s       :     3.773770  s :     3.773770
      pz      :     1.412083  p :     4.519461
      px      :     1.704684
      py      :     1.402694
      dz2     :     0.007218  d :     0.028677
      dxz     :     0.003123
      dyz     :     0.007342
      dx2y2   :     0.005343
      dxy     :     0.005651
      f0      :     0.000145  f :     0.001689
      f+1     :     0.000033
      f-1     :     0.000485
      f+2     :     0.000279
      f-2     :     0.000293
      f+3     :     0.000249
      f-3     :     0.000206

 40 C s       :     3.079448  s :     3.079448
      pz      :     0.913932  p :     2.789707
      px      :     1.007843
      py      :     0.867932
      dz2     :     0.017345  d :     0.102454
      dxz     :     0.022707
      dyz     :     0.020829
      dx2y2   :     0.023921
      dxy     :     0.017652
      f0      :     0.000465  f :     0.006982
      f+1     :     0.000484
      f-1     :     0.001273
      f+2     :     0.002020
      f-2     :     0.001207
      f+3     :     0.000851
      f-3     :     0.000682

 41 C s       :     3.133390  s :     3.133390
      pz      :     0.768017  p :     2.280995
      px      :     0.720124
      py      :     0.792854
      dz2     :     0.059939  d :     0.273601
      dxz     :     0.054110
      dyz     :     0.081116
      dx2y2   :     0.047708
      dxy     :     0.030729
      f0      :     0.004219  f :     0.025646
      f+1     :     0.003886
      f-1     :     0.005545
      f+2     :     0.003479
      f-2     :     0.003942
      f+3     :     0.002367
      f-3     :     0.002208

 42 O s       :     3.778452  s :     3.778452
      pz      :     1.355160  p :     4.552207
      px      :     1.502411
      py      :     1.694636
      dz2     :     0.009972  d :     0.028635
      dxz     :     0.008066
      dyz     :     0.006603
      dx2y2   :     0.001851
      dxy     :     0.002144
      f0      :     0.000562  f :     0.001799
      f+1     :     0.000368
      f-1     :     0.000325
      f+2     :     0.000218
      f-2     :     0.000235
      f+3     :     0.000040
      f-3     :     0.000052

 43 O s       :     3.758577  s :     3.758577
      pz      :     1.615730  p :     4.466505
      px      :     1.557001
      py      :     1.293774
      dz2     :     0.005566  d :     0.038601
      dxz     :     0.006253
      dyz     :     0.011347
      dx2y2   :     0.007656
      dxy     :     0.007779
      f0      :     0.000174  f :     0.002055
      f+1     :     0.000161
      f-1     :     0.000251
      f+2     :     0.000324
      f-2     :     0.000369
      f+3     :     0.000398
      f-3     :     0.000377

 44 C s       :     3.280207  s :     3.280207
      pz      :     1.003589  p :     2.866239
      px      :     1.097966
      py      :     0.764685
      dz2     :     0.017189  d :     0.079838
      dxz     :     0.012256
      dyz     :     0.016724
      dx2y2   :     0.012521
      dxy     :     0.021148
      f0      :     0.000621  f :     0.007649
      f+1     :     0.000519
      f-1     :     0.001613
      f+2     :     0.000992
      f-2     :     0.001391
      f+3     :     0.000941
      f-3     :     0.001572

 45 C s       :     3.242457  s :     3.242457
      pz      :     0.859507  p :     2.711684
      px      :     0.770548
      py      :     1.081628
      dz2     :     0.019251  d :     0.114679
      dxz     :     0.025695
      dyz     :     0.028048
      dx2y2   :     0.020616
      dxy     :     0.021070
      f0      :     0.000649  f :     0.009560
      f+1     :     0.002427
      f-1     :     0.000097
      f+2     :     0.002740
      f-2     :     0.001781
      f+3     :     0.000667
      f-3     :     0.001198

 46 C s       :     3.200197  s :     3.200197
      pz      :     1.005169  p :     2.904445
      px      :     0.937787
      py      :     0.961489
      dz2     :     0.005041  d :     0.076932
      dxz     :     0.014811
      dyz     :     0.021587
      dx2y2   :     0.024631
      dxy     :     0.010862
      f0      :     0.000744  f :     0.006931
      f+1     :     0.000900
      f-1     :     0.000237
      f+2     :     0.000977
      f-2     :     0.001579
      f+3     :     0.001018
      f-3     :     0.001476

 47 C s       :     3.224842  s :     3.224842
      pz      :     0.851241  p :     2.593238
      px      :     0.898814
      py      :     0.843183
      dz2     :     0.014168  d :     0.128955
      dxz     :     0.024196
      dyz     :     0.030615
      dx2y2   :     0.040156
      dxy     :     0.019820
      f0      :     0.000891  f :     0.009306
      f+1     :     0.000956
      f-1     :     0.000980
      f+2     :     0.001073
      f-2     :     0.002006
      f+3     :     0.001549
      f-3     :     0.001851

 48 C s       :     3.333798  s :     3.333798
      pz      :     1.027192  p :     3.028629
      px      :     1.074036
      py      :     0.927401
      dz2     :     0.006114  d :     0.045788
      dxz     :     0.009257
      dyz     :     0.012055
      dx2y2   :     0.008768
      dxy     :     0.009595
      f0      :    -0.000013  f :     0.003320
      f+1     :     0.000213
      f-1     :     0.000565
      f+2     :     0.001486
      f-2     :     0.000339
      f+3     :     0.000503
      f-3     :     0.000227

 49 C s       :     3.253561  s :     3.253561
      pz      :     0.934214  p :     2.863073
      px      :     0.877639
      py      :     1.051220
      dz2     :     0.013385  d :     0.084115
      dxz     :     0.015158
      dyz     :     0.024149
      dx2y2   :     0.017387
      dxy     :     0.014037
      f0      :     0.000132  f :     0.005530
      f+1     :     0.001318
      f-1     :     0.000006
      f+2     :     0.002039
      f-2     :     0.000906
      f+3     :     0.000352
      f-3     :     0.000776

 50 C s       :     3.264814  s :     3.264814
      pz      :     0.948698  p :     2.902950
      px      :     0.912335
      py      :     1.041918
      dz2     :     0.013346  d :     0.087435
      dxz     :     0.016453
      dyz     :     0.027199
      dx2y2   :     0.016730
      dxy     :     0.013705
      f0      :     0.000150  f :     0.005750
      f+1     :     0.001414
      f-1     :     0.000024
      f+2     :     0.002010
      f-2     :     0.001063
      f+3     :     0.000368
      f-3     :     0.000721

 51 C s       :     3.243369  s :     3.243369
      pz      :     0.953792  p :     2.891246
      px      :     0.898806
      py      :     1.038648
      dz2     :     0.012747  d :     0.086134
      dxz     :     0.014728
      dyz     :     0.027458
      dx2y2   :     0.017665
      dxy     :     0.013537
      f0      :     0.000162  f :     0.005693
      f+1     :     0.001328
      f-1     :     0.000051
      f+2     :     0.001995
      f-2     :     0.000970
      f+3     :     0.000380
      f-3     :     0.000806

 52 C s       :     3.157258  s :     3.157258
      pz      :     0.874806  p :     2.674857
      px      :     0.878818
      py      :     0.921233
      dz2     :     0.021394  d :     0.131572
      dxz     :     0.028841
      dyz     :     0.033438
      dx2y2   :     0.026911
      dxy     :     0.020988
      f0      :     0.000478  f :     0.007891
      f+1     :     0.001427
      f-1     :     0.000717
      f+2     :     0.002135
      f-2     :     0.001527
      f+3     :     0.000697
      f-3     :     0.000910

 53 C s       :     3.312610  s :     3.312610
      pz      :     1.022229  p :     3.071140
      px      :     1.072739
      py      :     0.976173
      dz2     :     0.007779  d :     0.049436
      dxz     :     0.014203
      dyz     :     0.007892
      dx2y2   :     0.014186
      dxy     :     0.005376
      f0      :     0.000120  f :     0.003498
      f+1     :     0.000059
      f-1     :     0.000585
      f+2     :     0.001878
      f-2     :     0.000476
      f+3     :     0.000239
      f-3     :     0.000141

 54 C s       :     3.243377  s :     3.243377
      pz      :     0.953017  p :     2.886199
      px      :     0.901082
      py      :     1.032101
      dz2     :     0.011910  d :     0.086849
      dxz     :     0.016734
      dyz     :     0.027209
      dx2y2   :     0.016429
      dxy     :     0.014568
      f0      :     0.000285  f :     0.005696
      f+1     :     0.001256
      f-1     :     0.000073
      f+2     :     0.001866
      f-2     :     0.001004
      f+3     :     0.000457
      f-3     :     0.000756

 55 C s       :     3.248734  s :     3.248734
      pz      :     0.950651  p :     2.907701
      px      :     0.927470
      py      :     1.029580
      dz2     :     0.012724  d :     0.086470
      dxz     :     0.017083
      dyz     :     0.026941
      dx2y2   :     0.015276
      dxy     :     0.014447
      f0      :     0.000336  f :     0.005753
      f+1     :     0.001239
      f-1     :     0.000115
      f+2     :     0.001866
      f-2     :     0.001070
      f+3     :     0.000471
      f-3     :     0.000654

 56 C s       :     3.243082  s :     3.243082
      pz      :     0.950091  p :     2.886742
      px      :     0.908196
      py      :     1.028455
      dz2     :     0.012082  d :     0.086813
      dxz     :     0.016431
      dyz     :     0.028129
      dx2y2   :     0.017007
      dxy     :     0.013164
      f0      :     0.000400  f :     0.005697
      f+1     :     0.001144
      f-1     :     0.000135
      f+2     :     0.001711
      f-2     :     0.001106
      f+3     :     0.000561
      f-3     :     0.000641

 57 C s       :     3.154252  s :     3.154252
      pz      :     0.880249  p :     2.673528
      px      :     0.876279
      py      :     0.917001
      dz2     :     0.020726  d :     0.131622
      dxz     :     0.027591
      dyz     :     0.034169
      dx2y2   :     0.027464
      dxy     :     0.021672
      f0      :     0.000644  f :     0.007892
      f+1     :     0.001215
      f-1     :     0.000891
      f+2     :     0.001932
      f-2     :     0.001367
      f+3     :     0.000817
      f-3     :     0.001027

 58 C s       :     3.312412  s :     3.312412
      pz      :     1.033399  p :     3.072438
      px      :     1.054537
      py      :     0.984502
      dz2     :     0.008006  d :     0.049540
      dxz     :     0.010570
      dyz     :     0.010291
      dx2y2   :     0.014513
      dxy     :     0.006159
      f0      :     0.000063  f :     0.003500
      f+1     :     0.000306
      f-1     :     0.000554
      f+2     :     0.001255
      f-2     :     0.000699
      f+3     :     0.000213
      f-3     :     0.000409

 59 C s       :     3.244070  s :     3.244070
      pz      :     0.951916  p :     2.886079
      px      :     0.922905
      py      :     1.011258
      dz2     :     0.011330  d :     0.086797
      dxz     :     0.019242
      dyz     :     0.025921
      dx2y2   :     0.014391
      dxy     :     0.015912
      f0      :     0.000617  f :     0.005696
      f+1     :     0.000917
      f-1     :     0.000323
      f+2     :     0.001258
      f-2     :     0.001261
      f+3     :     0.000795
      f-3     :     0.000524

 60 C s       :     3.249770  s :     3.249770
      pz      :     0.950936  p :     2.902888
      px      :     0.935433
      py      :     1.016519
      dz2     :     0.012585  d :     0.086843
      dxz     :     0.019927
      dyz     :     0.024825
      dx2y2   :     0.014524
      dxy     :     0.014982
      f0      :     0.000694  f :     0.005761
      f+1     :     0.000816
      f-1     :     0.000477
      f+2     :     0.001240
      f-2     :     0.001247
      f+3     :     0.000795
      f-3     :     0.000493

 61 C s       :     3.239957  s :     3.239957
      pz      :     0.946196  p :     2.884538
      px      :     0.923628
      py      :     1.014714
      dz2     :     0.012211  d :     0.086880
      dxz     :     0.019141
      dyz     :     0.025063
      dx2y2   :     0.012807
      dxy     :     0.017658
      f0      :     0.000719  f :     0.005663
      f+1     :     0.000746
      f-1     :     0.000521
      f+2     :     0.001332
      f-2     :     0.000994
      f+3     :     0.000782
      f-3     :     0.000570

 62 C s       :     3.159714  s :     3.159714
      pz      :     0.878825  p :     2.687045
      px      :     0.894074
      py      :     0.914146
      dz2     :     0.026515  d :     0.134136
      dxz     :     0.027263
      dyz     :     0.029860
      dx2y2   :     0.021583
      dxy     :     0.028914
      f0      :     0.001166  f :     0.007930
      f+1     :     0.000837
      f-1     :     0.001190
      f+2     :     0.001401
      f-2     :     0.001469
      f+3     :     0.001107
      f-3     :     0.000760

 63 C s       :     3.300010  s :     3.300010
      pz      :     1.016269  p :     3.059859
      px      :     1.067299
      py      :     0.976291
      dz2     :     0.013687  d :     0.050514
      dxz     :     0.008305
      dyz     :     0.006282
      dx2y2   :     0.008624
      dxy     :     0.013616
      f0      :     0.000297  f :     0.003536
      f+1     :     0.000296
      f-1     :     0.000807
      f+2     :     0.000619
      f-2     :     0.000707
      f+3     :     0.000493
      f-3     :     0.000318

 64 C s       :     3.301180  s :     3.301180
      pz      :     0.963852  p :     3.038694
      px      :     1.021775
      py      :     1.053067
      dz2     :     0.009529  d :     0.051473
      dxz     :     0.006496
      dyz     :     0.020315
      dx2y2   :     0.009910
      dxy     :     0.005223
      f0      :     0.000658  f :     0.003585
      f+1     :     0.000480
      f-1     :     0.000401
      f+2     :     0.001010
      f-2     :     0.000641
      f+3     :     0.000226
      f-3     :     0.000169

 65 H s       :     0.821162  s :     0.821162
      pz      :     0.009420  p :     0.023150
      px      :     0.009469
      py      :     0.004261

 66 H s       :     0.805114  s :     0.805114
      pz      :     0.005417  p :     0.023146
      px      :     0.006363
      py      :     0.011366

 67 H s       :     0.794314  s :     0.794314
      pz      :     0.008335  p :     0.022467
      px      :     0.010039
      py      :     0.004094

 68 H s       :     0.838054  s :     0.838054
      pz      :     0.004576  p :     0.022004
      px      :     0.004067
      py      :     0.013361

 69 H s       :     0.862836  s :     0.862836
      pz      :     0.004073  p :     0.021911
      px      :     0.011454
      py      :     0.006383

 70 H s       :     0.839956  s :     0.839956
      pz      :     0.004193  p :     0.020855
      px      :     0.008598
      py      :     0.008065

 71 H s       :     0.842424  s :     0.842424
      pz      :     0.010056  p :     0.021098
      px      :     0.004179
      py      :     0.006863

 72 H s       :     0.839652  s :     0.839652
      pz      :     0.004071  p :     0.020888
      px      :     0.010345
      py      :     0.006472

 73 H s       :     0.840972  s :     0.840972
      pz      :     0.011864  p :     0.022047
      px      :     0.004452
      py      :     0.005732

 74 H s       :     0.839671  s :     0.839671
      pz      :     0.004563  p :     0.021042
      px      :     0.003882
      py      :     0.012597

 75 H s       :     0.829788  s :     0.829788
      pz      :     0.011376  p :     0.021933
      px      :     0.004759
      py      :     0.005797

 76 H s       :     0.821476  s :     0.821476
      pz      :     0.004680  p :     0.021661
      px      :     0.003957
      py      :     0.013024

 77 H s       :     0.835914  s :     0.835914
      pz      :     0.004620  p :     0.021585
      px      :     0.011772
      py      :     0.005193

 78 H s       :     0.819083  s :     0.819083
      pz      :     0.004192  p :     0.021276
      px      :     0.004220
      py      :     0.012864

 79 H s       :     0.815816  s :     0.815816
      pz      :     0.011499  p :     0.020982
      px      :     0.004337
      py      :     0.005146

 80 H s       :     0.828535  s :     0.828535
      pz      :     0.007356  p :     0.021966
      px      :     0.008094
      py      :     0.006516

 81 H s       :     0.826388  s :     0.826388
      pz      :     0.004235  p :     0.021862
      px      :     0.006196
      py      :     0.011432

 82 H s       :     0.814367  s :     0.814367
      pz      :     0.008423  p :     0.021901
      px      :     0.007705
      py      :     0.005773

 83 H s       :     0.826142  s :     0.826142
      pz      :     0.004817  p :     0.020888
      px      :     0.005628
      py      :     0.010443

 84 H s       :     0.839262  s :     0.839262
      pz      :     0.005947  p :     0.021836
      px      :     0.011624
      py      :     0.004265

 85 H s       :     0.831994  s :     0.831994
      pz      :     0.012239  p :     0.020867
      px      :     0.004431
      py      :     0.004197

 86 H s       :     0.852367  s :     0.852367
      pz      :     0.004196  p :     0.021466
      px      :     0.005086
      py      :     0.012184

 87 H s       :     0.850077  s :     0.850077
      pz      :     0.005732  p :     0.021606
      px      :     0.010175
      py      :     0.005699

 88 H s       :     0.851159  s :     0.851159
      pz      :     0.007406  p :     0.020857
      px      :     0.009291
      py      :     0.004160

 89 H s       :     0.850992  s :     0.850992
      pz      :     0.004113  p :     0.020821
      px      :     0.004573
      py      :     0.012136

 90 H s       :     0.850777  s :     0.850777
      pz      :     0.006181  p :     0.020910
      px      :     0.009210
      py      :     0.005520

 91 H s       :     0.823238  s :     0.823238
      pz      :     0.008624  p :     0.020962
      px      :     0.004600
      py      :     0.007737

 92 H s       :     0.830691  s :     0.830691
      pz      :     0.006147  p :     0.021551
      px      :     0.005122
      py      :     0.010282

 93 H s       :     0.820786  s :     0.820786
      pz      :     0.005469  p :     0.021002
      px      :     0.010756
      py      :     0.004777

 94 H s       :     0.836008  s :     0.836008
      pz      :     0.007961  p :     0.022730
      px      :     0.010774
      py      :     0.003996

 95 H s       :     0.831793  s :     0.831793
      pz      :     0.011727  p :     0.020106
      px      :     0.005454
      py      :     0.002925

 96 H s       :     0.828740  s :     0.828740
      pz      :     0.003924  p :     0.020136
      px      :     0.010429
      py      :     0.005782

 97 H s       :     0.823918  s :     0.823918
      pz      :     0.006454  p :     0.020321
      px      :     0.008172
      py      :     0.005696

 98 H s       :     0.838806  s :     0.838806
      pz      :     0.007987  p :     0.020666
      px      :     0.003281
      py      :     0.009399

 99 H s       :     0.851819  s :     0.851819
      pz      :     0.007068  p :     0.021839
      px      :     0.003652
      py      :     0.011119

100 H s       :     0.839744  s :     0.839744
      pz      :     0.007240  p :     0.022016
      px      :     0.004190
      py      :     0.010586

101 H s       :     0.839034  s :     0.839034
      pz      :     0.007132  p :     0.021078
      px      :     0.004595
      py      :     0.009352

102 H s       :     0.826727  s :     0.826727
      pz      :     0.009270  p :     0.021342
      px      :     0.007779
      py      :     0.004293

103 H s       :     0.842007  s :     0.842007
      pz      :     0.005576  p :     0.021997
      px      :     0.011656
      py      :     0.004766

104 H s       :     0.854280  s :     0.854280
      pz      :     0.008136  p :     0.020890
      px      :     0.004048
      py      :     0.008706

105 H s       :     0.858840  s :     0.858840
      pz      :     0.007013  p :     0.021230
      px      :     0.004027
      py      :     0.010189

106 H s       :     0.859145  s :     0.859145
      pz      :     0.008311  p :     0.021355
      px      :     0.004150
      py      :     0.008894

107 H s       :     0.861333  s :     0.861333
      pz      :     0.006907  p :     0.021139
      px      :     0.004148
      py      :     0.010083

108 H s       :     0.870407  s :     0.870407
      pz      :     0.008534  p :     0.021052
      px      :     0.004142
      py      :     0.008375

109 H s       :     0.870214  s :     0.870214
      pz      :     0.006581  p :     0.020692
      px      :     0.004008
      py      :     0.010103

110 H s       :     0.901334  s :     0.901334
      pz      :     0.006791  p :     0.021062
      px      :     0.004041
      py      :     0.010229

111 H s       :     0.846083  s :     0.846083
      pz      :     0.008223  p :     0.021448
      px      :     0.008927
      py      :     0.004299

112 H s       :     0.846054  s :     0.846054
      pz      :     0.006785  p :     0.021436
      px      :     0.010408
      py      :     0.004242

113 H s       :     0.861744  s :     0.861744
      pz      :     0.006066  p :     0.020690
      px      :     0.004174
      py      :     0.010451

114 H s       :     0.871478  s :     0.871478
      pz      :     0.008038  p :     0.021015
      px      :     0.004455
      py      :     0.008522

115 H s       :     0.875077  s :     0.875077
      pz      :     0.006922  p :     0.020683
      px      :     0.004003
      py      :     0.009757

116 H s       :     0.858440  s :     0.858440
      pz      :     0.007652  p :     0.021834
      px      :     0.004952
      py      :     0.009230

117 H s       :     0.878311  s :     0.878311
      pz      :     0.007350  p :     0.020746
      px      :     0.004002
      py      :     0.009394

118 H s       :     0.871971  s :     0.871971
      pz      :     0.007703  p :     0.021012
      px      :     0.004892
      py      :     0.008417

119 H s       :     0.875591  s :     0.875591
      pz      :     0.007094  p :     0.020692
      px      :     0.004048
      py      :     0.009551

120 H s       :     0.902837  s :     0.902837
      pz      :     0.007240  p :     0.021057
      px      :     0.004117
      py      :     0.009700

121 H s       :     0.862205  s :     0.862205
      pz      :     0.006471  p :     0.020690
      px      :     0.004288
      py      :     0.009931

122 H s       :     0.847012  s :     0.847012
      pz      :     0.009464  p :     0.021444
      px      :     0.007174
      py      :     0.004806

123 H s       :     0.845506  s :     0.845506
      pz      :     0.005669  p :     0.021431
      px      :     0.011133
      py      :     0.004629

124 H s       :     0.873115  s :     0.873115
      pz      :     0.007182  p :     0.021022
      px      :     0.005972
      py      :     0.007868

125 H s       :     0.874197  s :     0.874197
      pz      :     0.007366  p :     0.020675
      px      :     0.004131
      py      :     0.009178

126 H s       :     0.870332  s :     0.870332
      pz      :     0.006576  p :     0.021250
      px      :     0.006447
      py      :     0.008227

127 H s       :     0.868601  s :     0.868601
      pz      :     0.007999  p :     0.021196
      px      :     0.004295
      py      :     0.008902

128 H s       :     0.873801  s :     0.873801
      pz      :     0.006084  p :     0.020633
      px      :     0.006020
      py      :     0.008529

129 H s       :     0.875078  s :     0.875078
      pz      :     0.008260  p :     0.020933
      px      :     0.004138
      py      :     0.008534

130 H s       :     0.901251  s :     0.901251
      pz      :     0.005983  p :     0.021043
      px      :     0.005932
      py      :     0.009128

131 H s       :     0.862750  s :     0.862750
      pz      :     0.005329  p :     0.020641
      px      :     0.006053
      py      :     0.009258

132 H s       :     0.852889  s :     0.852889
      pz      :     0.004639  p :     0.020894
      px      :     0.011145
      py      :     0.005110

133 H s       :     0.848228  s :     0.848228
      pz      :     0.010848  p :     0.021251
      px      :     0.005922
      py      :     0.004481

134 H s       :     0.855406  s :     0.855406
      pz      :     0.007541  p :     0.020813
      px      :     0.004221
      py      :     0.009051

135 H s       :     0.852897  s :     0.852897
      pz      :     0.004385  p :     0.020884
      px      :     0.011648
      py      :     0.004852

136 H s       :     0.862955  s :     0.862955
      pz      :     0.006410  p :     0.020629
      px      :     0.005474
      py      :     0.008745



                     *******************************
                     * LOEWDIN POPULATION ANALYSIS *
                     *******************************

----------------------
LOEWDIN ATOMIC CHARGES
----------------------
   0 Mg:    0.313641
   1 C :   -0.080458
   2 C :   -0.126926
   3 C :   -0.076072
   4 C :   -0.055110
   5 N :    0.204695
   6 C :   -0.124978
   7 C :   -0.162148
   8 C :   -0.186368
   9 C :   -0.155672
  10 C :   -0.269125
  11 C :   -0.215547
  12 C :   -0.216486
  13 C :   -0.466510
  14 O :    0.071353
  15 O :    0.246104
  16 N :    0.170476
  17 C :   -0.157902
  18 C :   -0.097824
  19 C :   -0.085697
  20 C :   -0.163794
  21 C :   -0.258273
  22 C :   -0.163128
  23 C :   -0.192807
  24 N :    0.180305
  25 C :   -0.175417
  26 C :   -0.123850
  27 C :   -0.096027
  28 C :   -0.177750
  29 C :   -0.261193
  30 C :   -0.244898
  31 C :   -0.301852
  32 N :    0.185328
  33 C :   -0.169791
  34 C :   -0.074257
  35 C :   -0.086640
  36 C :   -0.143415
  37 C :   -0.251903
  38 C :   -0.242459
  39 O :    0.083448
  40 C :   -0.108367
  41 C :   -0.456764
  42 O :    0.086201
  43 O :    0.244197
  44 C :   -0.300104
  45 C :   -0.256314
  46 C :   -0.177064
  47 C :   -0.184492
  48 C :   -0.259035
  49 C :   -0.220629
  50 C :   -0.255126
  51 C :   -0.244887
  52 C :   -0.283880
  53 C :   -0.289963
  54 C :   -0.246168
  55 C :   -0.264628
  56 C :   -0.246321
  57 C :   -0.284496
  58 C :   -0.290540
  59 C :   -0.246483
  60 C :   -0.265118
  61 C :   -0.249063
  62 C :   -0.312021
  63 C :   -0.294148
  64 C :   -0.295280
  65 H :    0.164302
  66 H :    0.165663
  67 H :    0.168776
  68 H :    0.170012
  69 H :    0.165561
  70 H :    0.126342
  71 H :    0.124946
  72 H :    0.129720
  73 H :    0.146312
  74 H :    0.150146
  75 H :    0.154502
  76 H :    0.164276
  77 H :    0.132320
  78 H :    0.136910
  79 H :    0.136892
  80 H :    0.156469
  81 H :    0.127925
  82 H :    0.128583
  83 H :    0.134298
  84 H :    0.131943
  85 H :    0.133282
  86 H :    0.144258
  87 H :    0.144427
  88 H :    0.120292
  89 H :    0.121295
  90 H :    0.120526
  91 H :    0.139308
  92 H :    0.135990
  93 H :    0.140302
  94 H :    0.180096
  95 H :    0.116273
  96 H :    0.117698
  97 H :    0.120313
  98 H :    0.137876
  99 H :    0.134070
 100 H :    0.149067
 101 H :    0.134149
 102 H :    0.134227
 103 H :    0.126892
 104 H :    0.145503
 105 H :    0.144733
 106 H :    0.136443
 107 H :    0.138158
 108 H :    0.139478
 109 H :    0.138449
 110 H :    0.150281
 111 H :    0.119729
 112 H :    0.119950
 113 H :    0.122792
 114 H :    0.138298
 115 H :    0.137749
 116 H :    0.133925
 117 H :    0.136318
 118 H :    0.138157
 119 H :    0.137587
 120 H :    0.149716
 121 H :    0.122676
 122 H :    0.119483
 123 H :    0.119727
 124 H :    0.138627
 125 H :    0.137327
 126 H :    0.135422
 127 H :    0.135699
 128 H :    0.137097
 129 H :    0.138761
 130 H :    0.147945
 131 H :    0.121714
 132 H :    0.120965
 133 H :    0.119237
 134 H :    0.120065
 135 H :    0.120184
 136 H :    0.120984

-------------------------------
LOEWDIN REDUCED ORBITAL CHARGES
-------------------------------
  0 Mgs       :     4.244376  s :     4.244376
      pz      :     2.217834  p :     6.709981
      px      :     2.249922
      py      :     2.242225
      dz2     :     0.133726  d :     0.732002
      dxz     :     0.086499
      dyz     :     0.185787
      dx2y2   :     0.155116
      dxy     :     0.170875

  1 C s       :     2.678188  s :     2.678188
      pz      :     0.960248  p :     2.863144
      px      :     0.969835
      py      :     0.933061
      dz2     :     0.087067  d :     0.482752
      dxz     :     0.101342
      dyz     :     0.086070
      dx2y2   :     0.109435
      dxy     :     0.098838
      f0      :     0.005579  f :     0.056374
      f+1     :     0.007188
      f-1     :     0.007759
      f+2     :     0.012378
      f-2     :     0.006935
      f+3     :     0.008046
      f-3     :     0.008491

  2 C s       :     2.739681  s :     2.739681
      pz      :     0.990671  p :     2.994412
      px      :     0.995622
      py      :     1.008119
      dz2     :     0.046394  d :     0.353087
      dxz     :     0.075334
      dyz     :     0.061751
      dx2y2   :     0.087571
      dxy     :     0.082036
      f0      :     0.004425  f :     0.039747
      f+1     :     0.002783
      f-1     :     0.006240
      f+2     :     0.005216
      f-2     :     0.006976
      f+3     :     0.008137
      f-3     :     0.005970

  3 C s       :     2.743021  s :     2.743021
      pz      :     0.961749  p :     2.927609
      px      :     0.996249
      py      :     0.969611
      dz2     :     0.077043  d :     0.365621
      dxz     :     0.084335
      dyz     :     0.047681
      dx2y2   :     0.068971
      dxy     :     0.087591
      f0      :     0.004797  f :     0.039820
      f+1     :     0.006412
      f-1     :     0.004075
      f+2     :     0.007684
      f-2     :     0.005693
      f+3     :     0.005910
      f-3     :     0.005248

  4 C s       :     2.748038  s :     2.748038
      pz      :     0.930076  p :     2.891871
      px      :     0.981497
      py      :     0.980297
      dz2     :     0.045332  d :     0.374990
      dxz     :     0.082003
      dyz     :     0.062207
      dx2y2   :     0.102675
      dxy     :     0.082773
      f0      :     0.004881  f :     0.040211
      f+1     :     0.002500
      f-1     :     0.006065
      f+2     :     0.004946
      f-2     :     0.006992
      f+3     :     0.008835
      f-3     :     0.005992

  5 N s       :     2.972277  s :     2.972277
      pz      :     1.142264  p :     3.601111
      px      :     1.291969
      py      :     1.166878
      dz2     :     0.043734  d :     0.203596
      dxz     :     0.040892
      dyz     :     0.043042
      dx2y2   :     0.036727
      dxy     :     0.039202
      f0      :     0.002035  f :     0.018321
      f+1     :     0.002730
      f-1     :     0.002439
      f+2     :     0.003224
      f-2     :     0.002801
      f+3     :     0.002788
      f-3     :     0.002304

  6 C s       :     2.698254  s :     2.698254
      pz      :     0.902742  p :     2.734278
      px      :     0.942625
      py      :     0.888911
      dz2     :     0.129404  d :     0.615868
      dxz     :     0.111152
      dyz     :     0.103751
      dx2y2   :     0.134115
      dxy     :     0.137448
      f0      :     0.007186  f :     0.076577
      f+1     :     0.009400
      f-1     :     0.011021
      f+2     :     0.015736
      f-2     :     0.009146
      f+3     :     0.011515
      f-3     :     0.012573

  7 C s       :     2.710987  s :     2.710987
      pz      :     0.973070  p :     2.918743
      px      :     0.962376
      py      :     0.983297
      dz2     :     0.105336  d :     0.478601
      dxz     :     0.109265
      dyz     :     0.081905
      dx2y2   :     0.122784
      dxy     :     0.059311
      f0      :     0.008996  f :     0.053817
      f+1     :     0.009402
      f-1     :     0.005568
      f+2     :     0.006582
      f-2     :     0.009785
      f+3     :     0.005234
      f-3     :     0.008250

  8 C s       :     2.716950  s :     2.716950
      pz      :     0.981551  p :     2.932927
      px      :     0.976462
      py      :     0.974914
      dz2     :     0.125519  d :     0.482584
      dxz     :     0.067918
      dyz     :     0.111731
      dx2y2   :     0.065734
      dxy     :     0.111682
      f0      :     0.009464  f :     0.053907
      f+1     :     0.009296
      f-1     :     0.007187
      f+2     :     0.007173
      f-2     :     0.009058
      f+3     :     0.004215
      f-3     :     0.007514

  9 C s       :     2.708506  s :     2.708506
      pz      :     0.887207  p :     2.739042
      px      :     0.899481
      py      :     0.952353
      dz2     :     0.141163  d :     0.630370
      dxz     :     0.116506
      dyz     :     0.120301
      dx2y2   :     0.122220
      dxy     :     0.130181
      f0      :     0.009859  f :     0.077754
      f+1     :     0.009796
      f-1     :     0.012187
      f+2     :     0.012063
      f-2     :     0.013367
      f+3     :     0.012690
      f-3     :     0.007792

 10 C s       :     2.824911  s :     2.824911
      pz      :     1.028956  p :     3.161443
      px      :     1.074552
      py      :     1.057936
      dz2     :     0.075486  d :     0.258223
      dxz     :     0.028160
      dyz     :     0.067966
      dx2y2   :     0.015959
      dxy     :     0.070652
      f0      :     0.003728  f :     0.024548
      f+1     :     0.004862
      f-1     :     0.004732
      f+2     :     0.004371
      f-2     :     0.002582
      f+3     :     0.001009
      f-3     :     0.003263

 11 C s       :     2.764769  s :     2.764769
      pz      :     1.016520  p :     3.024677
      px      :     0.976761
      py      :     1.031396
      dz2     :     0.084177  d :     0.387701
      dxz     :     0.086001
      dyz     :     0.053350
      dx2y2   :     0.105084
      dxy     :     0.059089
      f0      :     0.003919  f :     0.038400
      f+1     :     0.007389
      f-1     :     0.004361
      f+2     :     0.004716
      f-2     :     0.006400
      f+3     :     0.005039
      f-3     :     0.006576

 12 C s       :     2.770518  s :     2.770518
      pz      :     1.017544  p :     3.050439
      px      :     0.998902
      py      :     1.033993
      dz2     :     0.067462  d :     0.358548
      dxz     :     0.103415
      dyz     :     0.039796
      dx2y2   :     0.094591
      dxy     :     0.053283
      f0      :     0.003891  f :     0.036979
      f+1     :     0.007776
      f-1     :     0.004032
      f+2     :     0.004964
      f-2     :     0.005512
      f+3     :     0.004787
      f-3     :     0.006017

 13 C s       :     2.754096  s :     2.754096
      pz      :     1.012346  p :     2.625283
      px      :     0.899679
      py      :     0.713258
      dz2     :     0.220830  d :     0.934201
      dxz     :     0.347403
      dyz     :     0.162054
      dx2y2   :     0.093027
      dxy     :     0.110887
      f0      :     0.028221  f :     0.152930
      f+1     :     0.051811
      f-1     :     0.020845
      f+2     :     0.016037
      f-2     :     0.013005
      f+3     :     0.010603
      f-3     :     0.012408

 14 O s       :     3.387708  s :     3.387708
      pz      :     1.501560  p :     4.468705
      px      :     1.619521
      py      :     1.347624
      dz2     :     0.030458  d :     0.065991
      dxz     :     0.019462
      dyz     :     0.013830
      dx2y2   :     0.001242
      dxy     :     0.000998
      f0      :     0.002453  f :     0.006243
      f+1     :     0.002018
      f-1     :     0.001233
      f+2     :     0.000257
      f-2     :     0.000260
      f+3     :     0.000013
      f-3     :     0.000010

 15 O s       :     3.255950  s :     3.255950
      pz      :     1.547150  p :     4.389109
      px      :     1.263548
      py      :     1.578412
      dz2     :     0.016135  d :     0.102510
      dxz     :     0.037924
      dyz     :     0.007389
      dx2y2   :     0.025211
      dxy     :     0.015851
      f0      :     0.000605  f :     0.006327
      f+1     :     0.001967
      f-1     :     0.000099
      f+2     :     0.001177
      f-2     :     0.000955
      f+3     :     0.000957
      f-3     :     0.000568

 16 N s       :     2.965178  s :     2.965178
      pz      :     1.261868  p :     3.646808
      px      :     1.139290
      py      :     1.245650
      dz2     :     0.026725  d :     0.199162
      dxz     :     0.043767
      dyz     :     0.029766
      dx2y2   :     0.050419
      dxy     :     0.048485
      f0      :     0.001720  f :     0.018376
      f+1     :     0.002922
      f-1     :     0.001234
      f+2     :     0.002846
      f-2     :     0.003558
      f+3     :     0.002565
      f-3     :     0.003531

 17 C s       :     2.692777  s :     2.692777
      pz      :     0.876930  p :     2.743822
      px      :     0.923325
      py      :     0.943566
      dz2     :     0.119069  d :     0.641448
      dxz     :     0.126249
      dyz     :     0.105619
      dx2y2   :     0.148467
      dxy     :     0.142045
      f0      :     0.008598  f :     0.079856
      f+1     :     0.012816
      f-1     :     0.007079
      f+2     :     0.009214
      f-2     :     0.015722
      f+3     :     0.012310
      f-3     :     0.014116

 18 C s       :     2.701287  s :     2.701287
      pz      :     0.918329  p :     2.836070
      px      :     0.977520
      py      :     0.940222
      dz2     :     0.085827  d :     0.502438
      dxz     :     0.103342
      dyz     :     0.089382
      dx2y2   :     0.122753
      dxy     :     0.101134
      f0      :     0.006811  f :     0.058029
      f+1     :     0.006441
      f-1     :     0.007811
      f+2     :     0.009810
      f-2     :     0.008849
      f+3     :     0.011771
      f-3     :     0.006536

 19 C s       :     2.691467  s :     2.691467
      pz      :     0.907806  p :     2.831695
      px      :     0.973141
      py      :     0.950749
      dz2     :     0.087369  d :     0.504186
      dxz     :     0.089265
      dyz     :     0.091791
      dx2y2   :     0.111295
      dxy     :     0.124467
      f0      :     0.006372  f :     0.058348
      f+1     :     0.006073
      f-1     :     0.009053
      f+2     :     0.009402
      f-2     :     0.006928
      f+3     :     0.011235
      f-3     :     0.009286

 20 C s       :     2.689284  s :     2.689284
      pz      :     0.911836  p :     2.770184
      px      :     0.958955
      py      :     0.899394
      dz2     :     0.103683  d :     0.626328
      dxz     :     0.117991
      dyz     :     0.106586
      dx2y2   :     0.154157
      dxy     :     0.143910
      f0      :     0.008950  f :     0.077999
      f+1     :     0.011725
      f-1     :     0.006434
      f+2     :     0.010321
      f-2     :     0.011161
      f+3     :     0.010607
      f-3     :     0.018801

 21 C s       :     2.809035  s :     2.809035
      pz      :     1.052554  p :     3.171343
      px      :     1.050915
      py      :     1.067874
      dz2     :     0.079622  d :     0.252580
      dxz     :     0.040872
      dyz     :     0.031615
      dx2y2   :     0.067733
      dxy     :     0.032738
      f0      :     0.002766  f :     0.025315
      f+1     :     0.004368
      f-1     :     0.004239
      f+2     :     0.003306
      f-2     :     0.004601
      f+3     :     0.001619
      f-3     :     0.004416

 22 C s       :     2.769311  s :     2.769311
      pz      :     1.063039  p :     2.959958
      px      :     0.923931
      py      :     0.972988
      dz2     :     0.081885  d :     0.392063
      dxz     :     0.087958
      dyz     :     0.117239
      dx2y2   :     0.052464
      dxy     :     0.052516
      f0      :     0.007906  f :     0.041796
      f+1     :     0.006445
      f-1     :     0.008858
      f+2     :     0.005550
      f-2     :     0.005150
      f+3     :     0.003514
      f-3     :     0.004374

 23 C s       :     2.851220  s :     2.851220
      pz      :     1.085107  p :     3.078039
      px      :     0.976155
      py      :     1.016777
      dz2     :     0.059897  d :     0.236055
      dxz     :     0.063936
      dyz     :     0.073020
      dx2y2   :     0.021707
      dxy     :     0.017495
      f0      :     0.006410  f :     0.027492
      f+1     :     0.005657
      f-1     :     0.005836
      f+2     :     0.003126
      f-2     :     0.003654
      f+3     :     0.002190
      f-3     :     0.000619

 24 N s       :     2.972235  s :     2.972235
      pz      :     1.155492  p :     3.626194
      px      :     1.291200
      py      :     1.179502
      dz2     :     0.043606  d :     0.202741
      dxz     :     0.035760
      dyz     :     0.039769
      dx2y2   :     0.039640
      dxy     :     0.043966
      f0      :     0.002001  f :     0.018525
      f+1     :     0.002748
      f-1     :     0.001992
      f+2     :     0.003079
      f-2     :     0.002624
      f+3     :     0.003224
      f-3     :     0.002858

 25 C s       :     2.690027  s :     2.690027
      pz      :     0.916610  p :     2.777137
      px      :     0.949677
      py      :     0.910850
      dz2     :     0.110742  d :     0.628671
      dxz     :     0.111303
      dyz     :     0.120210
      dx2y2   :     0.145024
      dxy     :     0.141392
      f0      :     0.006454  f :     0.079581
      f+1     :     0.010505
      f-1     :     0.011943
      f+2     :     0.016180
      f-2     :     0.008447
      f+3     :     0.011238
      f-3     :     0.014814

 26 C s       :     2.700320  s :     2.700320
      pz      :     0.935388  p :     2.855364
      px      :     0.951618
      py      :     0.968358
      dz2     :     0.088843  d :     0.509389
      dxz     :     0.088315
      dyz     :     0.089996
      dx2y2   :     0.126212
      dxy     :     0.116023
      f0      :     0.005847  f :     0.058778
      f+1     :     0.007191
      f-1     :     0.007175
      f+2     :     0.008717
      f-2     :     0.009167
      f+3     :     0.007785
      f-3     :     0.012896

 27 C s       :     2.699626  s :     2.699626
      pz      :     0.926174  p :     2.827972
      px      :     0.946342
      py      :     0.955457
      dz2     :     0.098850  d :     0.509498
      dxz     :     0.102144
      dyz     :     0.080157
      dx2y2   :     0.109153
      dxy     :     0.119193
      f0      :     0.007247  f :     0.058932
      f+1     :     0.007970
      f-1     :     0.006316
      f+2     :     0.006188
      f-2     :     0.012002
      f+3     :     0.009235
      f-3     :     0.009974

 28 C s       :     2.688683  s :     2.688683
      pz      :     0.908111  p :     2.796215
      px      :     0.926886
      py      :     0.961218
      dz2     :     0.115816  d :     0.615219
      dxz     :     0.118209
      dyz     :     0.111693
      dx2y2   :     0.136763
      dxy     :     0.132738
      f0      :     0.009975  f :     0.077633
      f+1     :     0.009398
      f-1     :     0.009354
      f+2     :     0.010907
      f-2     :     0.014381
      f+3     :     0.014033
      f-3     :     0.009585

 29 C s       :     2.808958  s :     2.808958
      pz      :     1.068686  p :     3.173338
      px      :     1.059631
      py      :     1.045021
      dz2     :     0.059232  d :     0.253667
      dxz     :     0.036008
      dyz     :     0.034381
      dx2y2   :     0.073031
      dxy     :     0.051014
      f0      :     0.004312  f :     0.025231
      f+1     :     0.001163
      f-1     :     0.002419
      f+2     :     0.004341
      f-2     :     0.004055
      f+3     :     0.005091
      f-3     :     0.003848

 30 C s       :     2.761131  s :     2.761131
      pz      :     1.016454  p :     3.057337
      px      :     1.012183
      py      :     1.028700
      dz2     :     0.095988  d :     0.387552
      dxz     :     0.102754
      dyz     :     0.061030
      dx2y2   :     0.071553
      dxy     :     0.056227
      f0      :     0.007512  f :     0.038879
      f+1     :     0.007035
      f-1     :     0.005065
      f+2     :     0.004999
      f-2     :     0.007050
      f+3     :     0.002825
      f-3     :     0.004394

 31 C s       :     2.831118  s :     2.831118
      pz      :     1.038225  p :     3.186489
      px      :     1.076415
      py      :     1.071849
      dz2     :     0.054808  d :     0.259648
      dxz     :     0.088858
      dyz     :     0.041783
      dx2y2   :     0.052638
      dxy     :     0.021561
      f0      :     0.005984  f :     0.024597
      f+1     :     0.002862
      f-1     :     0.004501
      f+2     :     0.003490
      f-2     :     0.003820
      f+3     :     0.001542
      f-3     :     0.002399

 32 N s       :     2.962307  s :     2.962307
      pz      :     1.241538  p :     3.631483
      px      :     1.124235
      py      :     1.265710
      dz2     :     0.026673  d :     0.201711
      dxz     :     0.044787
      dyz     :     0.029061
      dx2y2   :     0.051614
      dxy     :     0.049576
      f0      :     0.001723  f :     0.019171
      f+1     :     0.003091
      f-1     :     0.001276
      f+2     :     0.002511
      f-2     :     0.003747
      f+3     :     0.002873
      f-3     :     0.003950

 33 C s       :     2.691346  s :     2.691346
      pz      :     0.904061  p :     2.800347
      px      :     0.933721
      py      :     0.962565
      dz2     :     0.108070  d :     0.602169
      dxz     :     0.119524
      dyz     :     0.093230
      dx2y2   :     0.137258
      dxy     :     0.144086
      f0      :     0.007483  f :     0.075928
      f+1     :     0.012024
      f-1     :     0.006346
      f+2     :     0.009022
      f-2     :     0.014743
      f+3     :     0.013553
      f-3     :     0.012759

 34 C s       :     2.708308  s :     2.708308
      pz      :     0.894848  p :     2.793893
      px      :     0.967469
      py      :     0.931576
      dz2     :     0.082295  d :     0.513503
      dxz     :     0.108711
      dyz     :     0.092131
      dx2y2   :     0.129032
      dxy     :     0.101334
      f0      :     0.005792  f :     0.058552
      f+1     :     0.007293
      f-1     :     0.008075
      f+2     :     0.011502
      f-2     :     0.007120
      f+3     :     0.011029
      f-3     :     0.007742

 35 C s       :     2.679926  s :     2.679926
      pz      :     0.940404  p :     2.866841
      px      :     0.975919
      py      :     0.950518
      dz2     :     0.083193  d :     0.477543
      dxz     :     0.085425
      dyz     :     0.070762
      dx2y2   :     0.097479
      dxy     :     0.140683
      f0      :     0.006333  f :     0.062330
      f+1     :     0.007310
      f-1     :     0.007424
      f+2     :     0.008572
      f-2     :     0.008337
      f+3     :     0.010949
      f-3     :     0.013405

 36 C s       :     2.661824  s :     2.661824
      pz      :     0.880905  p :     2.716641
      px      :     0.934976
      py      :     0.900760
      dz2     :     0.110491  d :     0.677128
      dxz     :     0.119913
      dyz     :     0.115256
      dx2y2   :     0.174437
      dxy     :     0.157030
      f0      :     0.009808  f :     0.087822
      f+1     :     0.011864
      f-1     :     0.007783
      f+2     :     0.010486
      f-2     :     0.012666
      f+3     :     0.013537
      f-3     :     0.021678

 37 C s       :     2.810357  s :     2.810357
      pz      :     1.051994  p :     3.170774
      px      :     1.052064
      py      :     1.066716
      dz2     :     0.038815  d :     0.245761
      dxz     :     0.052859
      dyz     :     0.066970
      dx2y2   :     0.048463
      dxy     :     0.038654
      f0      :     0.004509  f :     0.025011
      f+1     :     0.003548
      f-1     :     0.002601
      f+2     :     0.004369
      f-2     :     0.003694
      f+3     :     0.003926
      f-3     :     0.002365

 38 C s       :     2.744199  s :     2.744199
      pz      :     0.812219  p :     2.632293
      px      :     0.908214
      py      :     0.911859
      dz2     :     0.122491  d :     0.761175
      dxz     :     0.142205
      dyz     :     0.147164
      dx2y2   :     0.163922
      dxy     :     0.185393
      f0      :     0.010714  f :     0.104792
      f+1     :     0.006371
      f-1     :     0.018982
      f+2     :     0.013471
      f-2     :     0.022920
      f+3     :     0.018796
      f-3     :     0.013538

 39 O s       :     3.389998  s :     3.389998
      pz      :     1.407541  p :     4.453149
      px      :     1.580342
      py      :     1.465266
      dz2     :     0.010194  d :     0.067330
      dxz     :     0.007827
      dyz     :     0.022576
      dx2y2   :     0.013440
      dxy     :     0.013292
      f0      :     0.000522  f :     0.006075
      f+1     :     0.000100
      f-1     :     0.001355
      f+2     :     0.001532
      f-2     :     0.001124
      f+3     :     0.000735
      f-3     :     0.000707

 40 C s       :     2.722277  s :     2.722277
      pz      :     0.974650  p :     2.914029
      px      :     0.978569
      py      :     0.960809
      dz2     :     0.055549  d :     0.425757
      dxz     :     0.102643
      dyz     :     0.100543
      dx2y2   :     0.100493
      dxy     :     0.066528
      f0      :     0.005906  f :     0.046305
      f+1     :     0.004139
      f-1     :     0.008755
      f+2     :     0.007462
      f-2     :     0.006291
      f+3     :     0.007130
      f-3     :     0.006622

 41 C s       :     2.747843  s :     2.747843
      pz      :     0.951346  p :     2.621179
      px      :     0.788896
      py      :     0.880937
      dz2     :     0.206640  d :     0.934670
      dxz     :     0.201292
      dyz     :     0.260811
      dx2y2   :     0.142480
      dxy     :     0.123446
      f0      :     0.023862  f :     0.153071
      f+1     :     0.024560
      f-1     :     0.034398
      f+2     :     0.019505
      f-2     :     0.021668
      f+3     :     0.015524
      f-3     :     0.013555

 42 O s       :     3.385891  s :     3.385891
      pz      :     1.466209  p :     4.455336
      px      :     1.437258
      py      :     1.551868
      dz2     :     0.022767  d :     0.066303
      dxz     :     0.020300
      dyz     :     0.015513
      dx2y2   :     0.003849
      dxy     :     0.003874
      f0      :     0.001452  f :     0.006269
      f+1     :     0.001922
      f-1     :     0.001166
      f+2     :     0.000812
      f-2     :     0.000723
      f+3     :     0.000105
      f-3     :     0.000089

 43 O s       :     3.251108  s :     3.251108
      pz      :     1.563029  p :     4.390500
      px      :     1.500374
      py      :     1.327096
      dz2     :     0.015511  d :     0.107514
      dxz     :     0.014169
      dyz     :     0.027807
      dx2y2   :     0.021901
      dxy     :     0.028126
      f0      :     0.000484  f :     0.006681
      f+1     :     0.000563
      f-1     :     0.001281
      f+2     :     0.001111
      f-2     :     0.001319
      f+3     :     0.001157
      f-3     :     0.000766

 44 C s       :     2.862020  s :     2.862020
      pz      :     1.056387  p :     3.030192
      px      :     1.110045
      py      :     0.863759
      dz2     :     0.069426  d :     0.355474
      dxz     :     0.049201
      dyz     :     0.088428
      dx2y2   :     0.056177
      dxy     :     0.092241
      f0      :     0.004504  f :     0.052419
      f+1     :     0.002419
      f-1     :     0.011428
      f+2     :     0.010559
      f-2     :     0.007430
      f+3     :     0.006283
      f-3     :     0.009795

 45 C s       :     2.793542  s :     2.793542
      pz      :     0.961668  p :     2.909302
      px      :     0.882559
      py      :     1.065075
      dz2     :     0.062531  d :     0.487957
      dxz     :     0.136705
      dyz     :     0.120471
      dx2y2   :     0.100728
      dxy     :     0.067522
      f0      :     0.007950  f :     0.065514
      f+1     :     0.019243
      f-1     :     0.001686
      f+2     :     0.010622
      f-2     :     0.010399
      f+3     :     0.005708
      f-3     :     0.009906

 46 C s       :     2.773313  s :     2.773313
      pz      :     0.961194  p :     2.987439
      px      :     1.006464
      py      :     1.019780
      dz2     :     0.031598  d :     0.376055
      dxz     :     0.071638
      dyz     :     0.075820
      dx2y2   :     0.114538
      dxy     :     0.082461
      f0      :     0.004266  f :     0.040257
      f+1     :     0.005103
      f-1     :     0.002313
      f+2     :     0.004452
      f-2     :     0.007613
      f+3     :     0.007006
      f-3     :     0.009504

 47 C s       :     2.732773  s :     2.732773
      pz      :     0.874096  p :     2.866007
      px      :     0.977257
      py      :     1.014653
      dz2     :     0.065312  d :     0.529556
      dxz     :     0.090084
      dyz     :     0.104268
      dx2y2   :     0.153064
      dxy     :     0.116827
      f0      :     0.005304  f :     0.056155
      f+1     :     0.005496
      f-1     :     0.006948
      f+2     :     0.005169
      f-2     :     0.010724
      f+3     :     0.010922
      f-3     :     0.011593

 48 C s       :     2.812625  s :     2.812625
      pz      :     1.065572  p :     3.171087
      px      :     1.068646
      py      :     1.036869
      dz2     :     0.026301  d :     0.250535
      dxz     :     0.054890
      dyz     :     0.067714
      dx2y2   :     0.062679
      dxy     :     0.038951
      f0      :     0.002737  f :     0.024789
      f+1     :     0.002222
      f-1     :     0.004790
      f+2     :     0.004033
      f-2     :     0.003111
      f+3     :     0.005085
      f-3     :     0.002811

 49 C s       :     2.764870  s :     2.764870
      pz      :     1.013340  p :     3.031090
      px      :     0.992585
      py      :     1.025165
      dz2     :     0.045252  d :     0.386565
      dxz     :     0.088320
      dyz     :     0.105165
      dx2y2   :     0.095347
      dxy     :     0.052481
      f0      :     0.004376  f :     0.038103
      f+1     :     0.009386
      f-1     :     0.001443
      f+2     :     0.005964
      f-2     :     0.005484
      f+3     :     0.003938
      f-3     :     0.007512

 50 C s       :     2.772817  s :     2.772817
      pz      :     1.027662  p :     3.050165
      px      :     0.993283
      py      :     1.029220
      dz2     :     0.048496  d :     0.393574
      dxz     :     0.090292
      dyz     :     0.110041
      dx2y2   :     0.091917
      dxy     :     0.052827
      f0      :     0.004619  f :     0.038570
      f+1     :     0.010028
      f-1     :     0.001511
      f+2     :     0.005794
      f-2     :     0.005973
      f+3     :     0.003734
      f-3     :     0.006912

 51 C s       :     2.771513  s :     2.771513
      pz      :     1.018078  p :     3.039101
      px      :     0.995518
      py      :     1.025506
      dz2     :     0.049533  d :     0.396126
      dxz     :     0.089265
      dyz     :     0.107251
      dx2y2   :     0.097676
      dxy     :     0.052400
      f0      :     0.004316  f :     0.038146
      f+1     :     0.009413
      f-1     :     0.001707
      f+2     :     0.005851
      f-2     :     0.005731
      f+3     :     0.003815
      f-3     :     0.007314

 52 C s       :     2.731732  s :     2.731732
      pz      :     0.999406  p :     2.980964
      px      :     0.984524
      py      :     0.997034
      dz2     :     0.074518  d :     0.518450
      dxz     :     0.121431
      dyz     :     0.130416
      dx2y2   :     0.120672
      dxy     :     0.071414
      f0      :     0.006834  f :     0.052733
      f+1     :     0.010184
      f-1     :     0.005463
      f+2     :     0.007219
      f-2     :     0.009210
      f+3     :     0.005838
      f-3     :     0.007984

 53 C s       :     2.823354  s :     2.823354
      pz      :     1.057847  p :     3.178657
      px      :     1.066708
      py      :     1.054103
      dz2     :     0.030425  d :     0.263151
      dxz     :     0.079191
      dyz     :     0.059758
      dx2y2   :     0.071068
      dxy     :     0.022709
      f0      :     0.004158  f :     0.024801
      f+1     :     0.001602
      f-1     :     0.004800
      f+2     :     0.004700
      f-2     :     0.002865
      f+3     :     0.003875
      f-3     :     0.002802

 54 C s       :     2.771607  s :     2.771607
      pz      :     1.014836  p :     3.039299
      px      :     1.000109
      py      :     1.024354
      dz2     :     0.048417  d :     0.397159
      dxz     :     0.091143
      dyz     :     0.107587
      dx2y2   :     0.093488
      dxy     :     0.056523
      f0      :     0.004930  f :     0.038104
      f+1     :     0.008737
      f-1     :     0.001736
      f+2     :     0.005931
      f-2     :     0.005675
      f+3     :     0.004340
      f-3     :     0.006755

 55 C s       :     2.771030  s :     2.771030
      pz      :     1.027456  p :     3.058053
      px      :     1.004175
      py      :     1.026422
      dz2     :     0.049181  d :     0.396557
      dxz     :     0.092024
      dyz     :     0.111072
      dx2y2   :     0.085345
      dxy     :     0.058934
      f0      :     0.005530  f :     0.038989
      f+1     :     0.008888
      f-1     :     0.001907
      f+2     :     0.006178
      f-2     :     0.005846
      f+3     :     0.004492
      f-3     :     0.006148

 56 C s       :     2.771610  s :     2.771610
      pz      :     1.019133  p :     3.039421
      px      :     0.995902
      py      :     1.024387
      dz2     :     0.049241  d :     0.397173
      dxz     :     0.092610
      dyz     :     0.108161
      dx2y2   :     0.086438
      dxy     :     0.060722
      f0      :     0.005420  f :     0.038117
      f+1     :     0.008042
      f-1     :     0.002022
      f+2     :     0.005812
      f-2     :     0.005943
      f+3     :     0.005064
      f-3     :     0.005815

 57 C s       :     2.731771  s :     2.731771
      pz      :     0.997797  p :     2.981375
      px      :     0.987716
      py      :     0.995861
      dz2     :     0.076269  d :     0.518614
      dxz     :     0.113689
      dyz     :     0.131825
      dx2y2   :     0.112031
      dxy     :     0.084801
      f0      :     0.007083  f :     0.052736
      f+1     :     0.008883
      f-1     :     0.006216
      f+2     :     0.009066
      f-2     :     0.006981
      f+3     :     0.006569
      f-3     :     0.007939

 58 C s       :     2.823331  s :     2.823331
      pz      :     1.060618  p :     3.178885
      px      :     1.062974
      py      :     1.055294
      dz2     :     0.035330  d :     0.263506
      dxz     :     0.061205
      dyz     :     0.065606
      dx2y2   :     0.068061
      dxy     :     0.033304
      f0      :     0.003049  f :     0.024817
      f+1     :     0.003088
      f-1     :     0.004246
      f+2     :     0.004201
      f-2     :     0.002899
      f+3     :     0.002988
      f-3     :     0.004346

 59 C s       :     2.771611  s :     2.771611
      pz      :     1.012852  p :     3.039661
      px      :     1.007386
      py      :     1.019423
      dz2     :     0.050437  d :     0.397098
      dxz     :     0.093424
      dyz     :     0.104873
      dx2y2   :     0.073681
      dxy     :     0.074684
      f0      :     0.006265  f :     0.038113
      f+1     :     0.006623
      f-1     :     0.002642
      f+2     :     0.005856
      f-2     :     0.005855
      f+3     :     0.006604
      f-3     :     0.004268

 60 C s       :     2.771345  s :     2.771345
      pz      :     1.025975  p :     3.058336
      px      :     1.010730
      py      :     1.021631
      dz2     :     0.054755  d :     0.396457
      dxz     :     0.092227
      dyz     :     0.105249
      dx2y2   :     0.067646
      dxy     :     0.076580
      f0      :     0.006753  f :     0.038980
      f+1     :     0.006490
      f-1     :     0.003265
      f+2     :     0.006488
      f-2     :     0.005458
      f+3     :     0.006695
      f-3     :     0.003831

 61 C s       :     2.772509  s :     2.772509
      pz      :     1.018741  p :     3.041082
      px      :     1.002966
      py      :     1.019375
      dz2     :     0.056170  d :     0.397362
      dxz     :     0.090006
      dyz     :     0.104738
      dx2y2   :     0.069506
      dxy     :     0.076943
      f0      :     0.006459  f :     0.038109
      f+1     :     0.005954
      f-1     :     0.003309
      f+2     :     0.006898
      f-2     :     0.004891
      f+3     :     0.006255
      f-3     :     0.004342

 62 C s       :     2.735019  s :     2.735019
      pz      :     1.004213  p :     2.997810
      px      :     0.994498
      py      :     0.999100
      dz2     :     0.094130  d :     0.525703
      dxz     :     0.113140
      dyz     :     0.120552
      dx2y2   :     0.093250
      dxy     :     0.104632
      f0      :     0.009279  f :     0.053489
      f+1     :     0.006662
      f-1     :     0.007357
      f+2     :     0.007179
      f-2     :     0.009291
      f+3     :     0.008197
      f-3     :     0.005524

 63 C s       :     2.826244  s :     2.826244
      pz      :     1.057136  p :     3.179382
      px      :     1.069857
      py      :     1.052390
      dz2     :     0.064332  d :     0.263722
      dxz     :     0.043533
      dyz     :     0.050192
      dx2y2   :     0.046434
      dxy     :     0.059230
      f0      :     0.002935  f :     0.024799
      f+1     :     0.002967
      f-1     :     0.004782
      f+2     :     0.002851
      f-2     :     0.004683
      f+3     :     0.003738
      f-3     :     0.002843

 64 C s       :     2.827881  s :     2.827881
      pz      :     1.047875  p :     3.177614
      px      :     1.058416
      py      :     1.071323
      dz2     :     0.051593  d :     0.264956
      dxz     :     0.042833
      dyz     :     0.090453
      dx2y2   :     0.050800
      dxy     :     0.029277
      f0      :     0.006048  f :     0.024830
      f+1     :     0.003922
      f-1     :     0.002600
      f+2     :     0.003997
      f-2     :     0.003930
      f+3     :     0.002350
      f-3     :     0.001982

 65 H s       :     0.774773  s :     0.774773
      pz      :     0.024177  p :     0.060925
      px      :     0.024173
      py      :     0.012576

 66 H s       :     0.773577  s :     0.773577
      pz      :     0.015326  p :     0.060759
      px      :     0.017063
      py      :     0.028371

 67 H s       :     0.771346  s :     0.771346
      pz      :     0.021782  p :     0.059878
      px      :     0.025790
      py      :     0.012306

 68 H s       :     0.772153  s :     0.772153
      pz      :     0.013294  p :     0.057835
      px      :     0.012300
      py      :     0.032240

 69 H s       :     0.777016  s :     0.777016
      pz      :     0.012123  p :     0.057422
      px      :     0.027929
      py      :     0.017371

 70 H s       :     0.813111  s :     0.813111
      pz      :     0.012630  p :     0.060547
      px      :     0.025329
      py      :     0.022588

 71 H s       :     0.814100  s :     0.814100
      pz      :     0.026553  p :     0.060954
      px      :     0.013319
      py      :     0.021082

 72 H s       :     0.809553  s :     0.809553
      pz      :     0.012523  p :     0.060728
      px      :     0.029732
      py      :     0.018473

 73 H s       :     0.793609  s :     0.793609
      pz      :     0.029450  p :     0.060079
      px      :     0.013013
      py      :     0.017616

 74 H s       :     0.791379  s :     0.791379
      pz      :     0.013365  p :     0.058474
      px      :     0.011981
      py      :     0.033129

 75 H s       :     0.785417  s :     0.785417
      pz      :     0.028678  p :     0.060081
      px      :     0.013735
      py      :     0.017668

 76 H s       :     0.776255  s :     0.776255
      pz      :     0.013602  p :     0.059468
      px      :     0.012182
      py      :     0.033684

 77 H s       :     0.806716  s :     0.806716
      pz      :     0.014508  p :     0.060964
      px      :     0.030372
      py      :     0.016084

 78 H s       :     0.801976  s :     0.801976
      pz      :     0.012801  p :     0.061115
      px      :     0.012604
      py      :     0.035710

 79 H s       :     0.802671  s :     0.802671
      pz      :     0.030565  p :     0.060437
      px      :     0.013660
      py      :     0.016213

 80 H s       :     0.785070  s :     0.785070
      pz      :     0.019629  p :     0.058461
      px      :     0.021324
      py      :     0.017507

 81 H s       :     0.810000  s :     0.810000
      pz      :     0.012724  p :     0.062075
      px      :     0.018404
      py      :     0.030947

 82 H s       :     0.808482  s :     0.808482
      pz      :     0.022530  p :     0.062935
      px      :     0.021915
      py      :     0.018490

 83 H s       :     0.805414  s :     0.805414
      pz      :     0.015081  p :     0.060289
      px      :     0.017672
      py      :     0.027535

 84 H s       :     0.807111  s :     0.807111
      pz      :     0.017980  p :     0.060946
      px      :     0.030259
      py      :     0.012707

 85 H s       :     0.806330  s :     0.806330
      pz      :     0.034358  p :     0.060389
      px      :     0.013489
      py      :     0.012541

 86 H s       :     0.797528  s :     0.797528
      pz      :     0.012872  p :     0.058214
      px      :     0.013662
      py      :     0.031680

 87 H s       :     0.797314  s :     0.797314
      pz      :     0.016414  p :     0.058259
      px      :     0.024473
      py      :     0.017372

 88 H s       :     0.819283  s :     0.819283
      pz      :     0.019893  p :     0.060425
      px      :     0.027250
      py      :     0.013283

 89 H s       :     0.818128  s :     0.818128
      pz      :     0.012848  p :     0.060577
      px      :     0.014290
      py      :     0.033438

 90 H s       :     0.818712  s :     0.818712
      pz      :     0.017076  p :     0.060762
      px      :     0.026449
      py      :     0.017237

 91 H s       :     0.800108  s :     0.800108
      pz      :     0.023375  p :     0.060585
      px      :     0.013623
      py      :     0.023587

 92 H s       :     0.802988  s :     0.802988
      pz      :     0.016828  p :     0.061021
      px      :     0.016190
      py      :     0.028003

 93 H s       :     0.799121  s :     0.799121
      pz      :     0.017148  p :     0.060577
      px      :     0.028871
      py      :     0.014558

 94 H s       :     0.760017  s :     0.760017
      pz      :     0.021058  p :     0.059887
      px      :     0.027090
      py      :     0.011738

 95 H s       :     0.821777  s :     0.821777
      pz      :     0.035203  p :     0.061951
      px      :     0.017040
      py      :     0.009707

 96 H s       :     0.820311  s :     0.820311
      pz      :     0.012583  p :     0.061991
      px      :     0.032453
      py      :     0.016955

 97 H s       :     0.818473  s :     0.818473
      pz      :     0.020504  p :     0.061214
      px      :     0.024553
      py      :     0.016156

 98 H s       :     0.803274  s :     0.803274
      pz      :     0.021345  p :     0.058850
      px      :     0.009790
      py      :     0.027715

 99 H s       :     0.804918  s :     0.804918
      pz      :     0.018719  p :     0.061012
      px      :     0.010263
      py      :     0.032030

100 H s       :     0.791457  s :     0.791457
      pz      :     0.019821  p :     0.059476
      px      :     0.012836
      py      :     0.026819

101 H s       :     0.805615  s :     0.805615
      pz      :     0.021725  p :     0.060236
      px      :     0.014464
      py      :     0.024047

102 H s       :     0.804724  s :     0.804724
      pz      :     0.025612  p :     0.061049
      px      :     0.022719
      py      :     0.012718

103 H s       :     0.811184  s :     0.811184
      pz      :     0.016101  p :     0.061924
      px      :     0.032673
      py      :     0.013150

104 H s       :     0.796965  s :     0.796965
      pz      :     0.020859  p :     0.057532
      px      :     0.012179
      py      :     0.024494

105 H s       :     0.797780  s :     0.797780
      pz      :     0.018044  p :     0.057487
      px      :     0.011740
      py      :     0.027702

106 H s       :     0.804716  s :     0.804716
      pz      :     0.021493  p :     0.058840
      px      :     0.012579
      py      :     0.024769

107 H s       :     0.803384  s :     0.803384
      pz      :     0.018367  p :     0.058458
      px      :     0.012595
      py      :     0.027496

108 H s       :     0.802830  s :     0.802830
      pz      :     0.021918  p :     0.057692
      px      :     0.012084
      py      :     0.023691

109 H s       :     0.803867  s :     0.803867
      pz      :     0.017761  p :     0.057684
      px      :     0.012411
      py      :     0.027513

110 H s       :     0.794268  s :     0.794268
      pz      :     0.018258  p :     0.055452
      px      :     0.012202
      py      :     0.024992

111 H s       :     0.818932  s :     0.818932
      pz      :     0.022185  p :     0.061339
      px      :     0.026037
      py      :     0.013118

112 H s       :     0.818679  s :     0.818679
      pz      :     0.018678  p :     0.061371
      px      :     0.029504
      py      :     0.013189

113 H s       :     0.817159  s :     0.817159
      pz      :     0.018779  p :     0.060050
      px      :     0.013324
      py      :     0.027947

114 H s       :     0.804078  s :     0.804078
      pz      :     0.020764  p :     0.057625
      px      :     0.012912
      py      :     0.023950

115 H s       :     0.804625  s :     0.804625
      pz      :     0.018520  p :     0.057626
      px      :     0.012463
      py      :     0.026642

116 H s       :     0.806655  s :     0.806655
      pz      :     0.019812  p :     0.059420
      px      :     0.014374
      py      :     0.025235

117 H s       :     0.806188  s :     0.806188
      pz      :     0.019341  p :     0.057494
      px      :     0.012337
      py      :     0.025817

118 H s       :     0.804234  s :     0.804234
      pz      :     0.020122  p :     0.057608
      px      :     0.013804
      py      :     0.023683

119 H s       :     0.804786  s :     0.804786
      pz      :     0.018888  p :     0.057627
      px      :     0.012488
      py      :     0.026251

120 H s       :     0.794828  s :     0.794828
      pz      :     0.019144  p :     0.055456
      px      :     0.012429
      py      :     0.023883

121 H s       :     0.817308  s :     0.817308
      pz      :     0.019856  p :     0.060017
      px      :     0.013453
      py      :     0.026707

122 H s       :     0.819170  s :     0.819170
      pz      :     0.025509  p :     0.061347
      px      :     0.021636
      py      :     0.014202

123 H s       :     0.818918  s :     0.818918
      pz      :     0.016132  p :     0.061355
      px      :     0.030694
      py      :     0.014528

124 H s       :     0.803746  s :     0.803746
      pz      :     0.018839  p :     0.057627
      px      :     0.016562
      py      :     0.022226

125 H s       :     0.805074  s :     0.805074
      pz      :     0.019540  p :     0.057599
      px      :     0.012933
      py      :     0.025126

126 H s       :     0.806163  s :     0.806163
      pz      :     0.017560  p :     0.058415
      px      :     0.017922
      py      :     0.022933

127 H s       :     0.805996  s :     0.805996
      pz      :     0.020789  p :     0.058305
      px      :     0.013144
      py      :     0.024373

128 H s       :     0.805377  s :     0.805377
      pz      :     0.016673  p :     0.057526
      px      :     0.017164
      py      :     0.023689

129 H s       :     0.803626  s :     0.803626
      pz      :     0.021371  p :     0.057612
      px      :     0.012493
      py      :     0.023748

130 H s       :     0.796562  s :     0.796562
      pz      :     0.016454  p :     0.055493
      px      :     0.016356
      py      :     0.022683

131 H s       :     0.818238  s :     0.818238
      pz      :     0.016707  p :     0.060048
      px      :     0.018256
      py      :     0.025086

132 H s       :     0.818753  s :     0.818753
      pz      :     0.013735  p :     0.060283
      px      :     0.031780
      py      :     0.014768

133 H s       :     0.819607  s :     0.819607
      pz      :     0.029240  p :     0.061156
      px      :     0.017825
      py      :     0.014091

134 H s       :     0.819742  s :     0.819742
      pz      :     0.020554  p :     0.060194
      px      :     0.013005
      py      :     0.026635

135 H s       :     0.819562  s :     0.819562
      pz      :     0.013726  p :     0.060253
      px      :     0.031652
      py      :     0.014875

136 H s       :     0.818888  s :     0.818888
      pz      :     0.017928  p :     0.060128
      px      :     0.017083
      py      :     0.025117



                      *****************************
                      * MAYER POPULATION ANALYSIS *
                      *****************************

  NA   - Mulliken gross atomic population
  ZA   - Total nuclear charge
  QA   - Mulliken gross atomic charge
  VA   - Mayer's total valence
  BVA  - Mayer's bonded valence
  FA   - Mayer's free valence

  ATOM       NA         ZA         QA         VA         BVA        FA
  0 Mg    11.3166    12.0000     0.6834     2.0144     2.0144    -0.0000
  1 C      6.1356     6.0000    -0.1356     3.7815     3.7815     0.0000
  2 C      6.3743     6.0000    -0.3743     3.9434     3.9434    -0.0000
  3 C      6.2571     6.0000    -0.2571     4.0305     4.0305     0.0000
  4 C      6.2165     6.0000    -0.2165     3.9868     3.9868    -0.0000
  5 N      7.3858     7.0000    -0.3858     2.9412     2.9412     0.0000
  6 C      5.7389     6.0000     0.2611     3.5570     3.5570     0.0000
  7 C      6.0523     6.0000    -0.0523     3.8731     3.8731    -0.0000
  8 C      5.9843     6.0000     0.0157     3.8301     3.8301     0.0000
  9 C      5.8572     6.0000     0.1428     3.9304     3.9304     0.0000
 10 C      6.4296     6.0000    -0.4296     3.8589     3.8589    -0.0000
 11 C      6.2975     6.0000    -0.2975     3.8062     3.8062    -0.0000
 12 C      6.2383     6.0000    -0.2383     3.7860     3.7860    -0.0000
 13 C      5.6685     6.0000     0.3315     4.2282     4.2282    -0.0000
 14 O      8.3803     8.0000    -0.3803     2.1072     2.1072    -0.0000
 15 O      8.2693     8.0000    -0.2693     2.1057     2.1057    -0.0000
 16 N      7.3685     7.0000    -0.3685     3.0192     3.0192     0.0000
 17 C      5.7461     6.0000     0.2539     3.7288     3.7288    -0.0000
 18 C      6.0091     6.0000    -0.0091     3.7067     3.7067    -0.0000
 19 C      5.9773     6.0000     0.0227     3.7971     3.7971    -0.0000
 20 C      5.8078     6.0000     0.1922     3.8118     3.8118     0.0000
 21 C      6.4651     6.0000    -0.4651     3.8533     3.8533    -0.0000
 22 C      6.1829     6.0000    -0.1829     3.8206     3.8206    -0.0000
 23 C      6.3411     6.0000    -0.3411     3.8668     3.8668    -0.0000
 24 N      7.3666     7.0000    -0.3666     2.9955     2.9955    -0.0000
 25 C      5.8437     6.0000     0.1563     3.9057     3.9057     0.0000
 26 C      6.0097     6.0000    -0.0097     3.7170     3.7170     0.0000
 27 C      6.0518     6.0000    -0.0518     3.7831     3.7831    -0.0000
 28 C      5.7772     6.0000     0.2228     3.6691     3.6691    -0.0000
 29 C      6.4443     6.0000    -0.4443     3.8611     3.8611     0.0000
 30 C      6.2752     6.0000    -0.2752     3.8308     3.8308    -0.0000
 31 C      6.3759     6.0000    -0.3759     3.8265     3.8265    -0.0000
 32 N      7.3964     7.0000    -0.3964     2.9940     2.9940     0.0000
 33 C      5.8416     6.0000     0.1584     3.8798     3.8798    -0.0000
 34 C      6.0772     6.0000    -0.0772     3.9096     3.9096    -0.0000
 35 C      6.0247     6.0000    -0.0247     3.3702     3.3702    -0.0000
 36 C      5.8333     6.0000     0.1667     3.7243     3.7243     0.0000
 37 C      6.4466     6.0000    -0.4466     3.8387     3.8387    -0.0000
 38 C      5.9202     6.0000     0.0798     4.4466     4.4466    -0.0000
 39 O      8.3236     8.0000    -0.3236     2.1955     2.1955    -0.0000
 40 C      5.9786     6.0000     0.0214     3.4765     3.4765     0.0000
 41 C      5.7136     6.0000     0.2864     4.2729     4.2729     0.0000
 42 O      8.3611     8.0000    -0.3611     2.1318     2.1318    -0.0000
 43 O      8.2657     8.0000    -0.2657     2.1146     2.1146     0.0000
 44 C      6.2339     6.0000    -0.2339     3.8321     3.8321    -0.0000
 45 C      6.0784     6.0000    -0.0784     3.8373     3.8373    -0.0000
 46 C      6.1885     6.0000    -0.1885     3.8398     3.8398    -0.0000
 47 C      5.9563     6.0000     0.0437     3.7211     3.7211     0.0000
 48 C      6.4115     6.0000    -0.4115     3.8542     3.8542    -0.0000
 49 C      6.2063     6.0000    -0.2063     3.8041     3.8041    -0.0000
 50 C      6.2609     6.0000    -0.2609     3.7919     3.7919     0.0000
 51 C      6.2264     6.0000    -0.2264     3.8131     3.8131     0.0000
 52 C      5.9716     6.0000     0.0284     3.7630     3.7630     0.0000
 53 C      6.4367     6.0000    -0.4367     3.8525     3.8525    -0.0000
 54 C      6.2221     6.0000    -0.2221     3.8155     3.8155    -0.0000
 55 C      6.2487     6.0000    -0.2487     3.8534     3.8534    -0.0000
 56 C      6.2223     6.0000    -0.2223     3.8214     3.8214    -0.0000
 57 C      5.9673     6.0000     0.0327     3.7645     3.7645    -0.0000
 58 C      6.4379     6.0000    -0.4379     3.8511     3.8511    -0.0000
 59 C      6.2226     6.0000    -0.2226     3.8200     3.8200    -0.0000
 60 C      6.2453     6.0000    -0.2453     3.8440     3.8440     0.0000
 61 C      6.2170     6.0000    -0.2170     3.7804     3.7804    -0.0000
 62 C      5.9888     6.0000     0.0112     3.7829     3.7829    -0.0000
 63 C      6.4139     6.0000    -0.4139     3.8375     3.8375     0.0000
 64 C      6.3949     6.0000    -0.3949     3.8500     3.8500    -0.0000
 65 H      0.8443     1.0000     0.1557     0.9662     0.9662    -0.0000
 66 H      0.8283     1.0000     0.1717     0.9561     0.9561     0.0000
 67 H      0.8168     1.0000     0.1832     0.9483     0.9483    -0.0000
 68 H      0.8601     1.0000     0.1399     0.9664     0.9664    -0.0000
 69 H      0.8847     1.0000     0.1153     0.9664     0.9664     0.0000
 70 H      0.8608     1.0000     0.1392     0.9648     0.9648    -0.0000
 71 H      0.8635     1.0000     0.1365     0.9708     0.9708    -0.0000
 72 H      0.8605     1.0000     0.1395     0.9665     0.9665    -0.0000
 73 H      0.8630     1.0000     0.1370     0.9915     0.9915    -0.0000
 74 H      0.8607     1.0000     0.1393     0.9704     0.9704    -0.0000
 75 H      0.8517     1.0000     0.1483     0.9900     0.9900    -0.0000
 76 H      0.8431     1.0000     0.1569     0.9700     0.9700    -0.0000
 77 H      0.8575     1.0000     0.1425     0.9662     0.9662     0.0000
 78 H      0.8404     1.0000     0.1596     0.9559     0.9559     0.0000
 79 H      0.8368     1.0000     0.1632     0.9460     0.9460    -0.0000
 80 H      0.8505     1.0000     0.1495     0.9723     0.9723    -0.0000
 81 H      0.8482     1.0000     0.1518     0.9730     0.9730    -0.0000
 82 H      0.8363     1.0000     0.1637     0.9610     0.9610    -0.0000
 83 H      0.8470     1.0000     0.1530     0.9522     0.9522     0.0000
 84 H      0.8611     1.0000     0.1389     0.9705     0.9705     0.0000
 85 H      0.8529     1.0000     0.1471     0.9547     0.9547     0.0000
 86 H      0.8738     1.0000     0.1262     0.9616     0.9616    -0.0000
 87 H      0.8717     1.0000     0.1283     0.9617     0.9617    -0.0000
 88 H      0.8720     1.0000     0.1280     0.9685     0.9685    -0.0000
 89 H      0.8718     1.0000     0.1282     0.9661     0.9661     0.0000
 90 H      0.8717     1.0000     0.1283     0.9700     0.9700    -0.0000
 91 H      0.8442     1.0000     0.1558     0.9536     0.9536     0.0000
 92 H      0.8522     1.0000     0.1478     0.9805     0.9805    -0.0000
 93 H      0.8418     1.0000     0.1582     0.9525     0.9525    -0.0000
 94 H      0.8587     1.0000     0.1413     0.9955     0.9955     0.0000
 95 H      0.8519     1.0000     0.1481     0.9609     0.9609    -0.0000
 96 H      0.8489     1.0000     0.1511     0.9621     0.9621    -0.0000
 97 H      0.8442     1.0000     0.1558     0.9625     0.9625    -0.0000
 98 H      0.8595     1.0000     0.1405     0.9653     0.9653     0.0000
 99 H      0.8737     1.0000     0.1263     0.9808     0.9808     0.0000
100 H      0.8618     1.0000     0.1382     0.9767     0.9767    -0.0000
101 H      0.8601     1.0000     0.1399     0.9620     0.9620     0.0000
102 H      0.8481     1.0000     0.1519     0.9525     0.9525     0.0000
103 H      0.8640     1.0000     0.1360     0.9683     0.9683    -0.0000
104 H      0.8752     1.0000     0.1248     0.9672     0.9672    -0.0000
105 H      0.8801     1.0000     0.1199     0.9765     0.9765    -0.0000
106 H      0.8805     1.0000     0.1195     0.9725     0.9725     0.0000
107 H      0.8825     1.0000     0.1175     0.9653     0.9653     0.0000
108 H      0.8915     1.0000     0.1085     0.9732     0.9732     0.0000
109 H      0.8909     1.0000     0.1091     0.9752     0.9752     0.0000
110 H      0.9224     1.0000     0.0776     0.9678     0.9678     0.0000
111 H      0.8675     1.0000     0.1325     0.9657     0.9657    -0.0000
112 H      0.8675     1.0000     0.1325     0.9654     0.9654    -0.0000
113 H      0.8824     1.0000     0.1176     0.9709     0.9709    -0.0000
114 H      0.8925     1.0000     0.1075     0.9723     0.9723     0.0000
115 H      0.8958     1.0000     0.1042     0.9754     0.9754    -0.0000
116 H      0.8803     1.0000     0.1197     0.9634     0.9634    -0.0000
117 H      0.8991     1.0000     0.1009     0.9702     0.9702     0.0000
118 H      0.8930     1.0000     0.1070     0.9723     0.9723     0.0000
119 H      0.8963     1.0000     0.1037     0.9755     0.9755     0.0000
120 H      0.9239     1.0000     0.0761     0.9679     0.9679    -0.0000
121 H      0.8829     1.0000     0.1171     0.9710     0.9710    -0.0000
122 H      0.8685     1.0000     0.1315     0.9659     0.9659    -0.0000
123 H      0.8669     1.0000     0.1331     0.9653     0.9653    -0.0000
124 H      0.8941     1.0000     0.1059     0.9720     0.9720    -0.0000
125 H      0.8949     1.0000     0.1051     0.9749     0.9749    -0.0000
126 H      0.8916     1.0000     0.1084     0.9678     0.9678     0.0000
127 H      0.8898     1.0000     0.1102     0.9662     0.9662     0.0000
128 H      0.8944     1.0000     0.1056     0.9757     0.9757    -0.0000
129 H      0.8960     1.0000     0.1040     0.9715     0.9715     0.0000
130 H      0.9223     1.0000     0.0777     0.9607     0.9607    -0.0000
131 H      0.8834     1.0000     0.1166     0.9721     0.9721     0.0000
132 H      0.8738     1.0000     0.1262     0.9685     0.9685     0.0000
133 H      0.8695     1.0000     0.1305     0.9646     0.9646    -0.0000
134 H      0.8762     1.0000     0.1238     0.9686     0.9686    -0.0000
135 H      0.8738     1.0000     0.1262     0.9687     0.9687    -0.0000
136 H      0.8836     1.0000     0.1164     0.9719     0.9719    -0.0000

  Mayer bond orders larger than 0.100000
B(  0-Mg,  5-N ) :   0.4389 B(  0-Mg, 16-N ) :   0.5697 B(  0-Mg, 24-N ) :   0.5033 
B(  0-Mg, 32-N ) :   0.5796 B(  1-C ,  6-C ) :   1.4466 B(  1-C , 36-C ) :   1.1869 
B(  1-C , 40-C ) :   0.9194 B(  2-C ,  9-C ) :   1.4885 B(  2-C , 17-C ) :   1.2571 
B(  2-C , 65-H ) :   0.9257 B(  3-C , 20-C ) :   1.4734 B(  3-C , 25-C ) :   1.3308 
B(  3-C , 66-H ) :   0.8835 B(  4-C , 28-C ) :   1.3297 B(  4-C , 33-C ) :   1.4227 
B(  4-C , 67-H ) :   0.9119 B(  5-N ,  6-C ) :   1.0613 B(  5-N ,  9-C ) :   1.2757 
B(  6-C ,  7-C ) :   1.0191 B(  7-C ,  8-C ) :   0.9396 B(  7-C , 11-C ) :   0.8713 
B(  7-C , 68-H ) :   0.9819 B(  8-C ,  9-C ) :   0.9856 B(  8-C , 10-C ) :   0.8898 
B(  8-C , 69-H ) :   0.9766 B( 10-C , 70-H ) :   0.9789 B( 10-C , 71-H ) :   0.9769 
B( 10-C , 72-H ) :   0.9714 B( 11-C , 12-C ) :   0.9284 B( 11-C , 73-H ) :   0.9911 
B( 11-C , 74-H ) :   0.9642 B( 12-C , 13-C ) :   0.9947 B( 12-C , 75-H ) :   0.9673 
B( 12-C , 76-H ) :   0.9369 B( 13-C , 14-O ) :   1.9636 B( 13-C , 15-O ) :   1.2381 
B( 15-O , 45-C ) :   0.8358 B( 16-N , 17-C ) :   1.2485 B( 16-N , 20-C ) :   1.1291 
B( 17-C , 18-C ) :   1.1896 B( 18-C , 19-C ) :   1.6233 B( 18-C , 21-C ) :   0.8583 
B( 19-C , 20-C ) :   1.1526 B( 19-C , 22-C ) :   0.9993 B( 21-C , 77-H ) :   0.9771 
B( 21-C , 78-H ) :   1.0005 B( 21-C , 79-H ) :   0.9737 B( 22-C , 23-C ) :   1.8409 
B( 22-C , 80-H ) :   0.9511 B( 23-C , 81-H ) :   0.9749 B( 23-C , 82-H ) :   0.9705 
B( 24-N , 25-C ) :   1.2595 B( 24-N , 28-C ) :   1.1548 B( 25-C , 26-C ) :   1.2141 
B( 26-C , 27-C ) :   1.6538 B( 26-C , 29-C ) :   0.8721 B( 27-C , 28-C ) :   1.1956 
B( 27-C , 30-C ) :   0.8980 B( 29-C , 83-H ) :   0.9830 B( 29-C , 84-H ) :   0.9948 
B( 29-C , 85-H ) :   0.9812 B( 30-C , 31-C ) :   0.9359 B( 30-C , 86-H ) :   0.9822 
B( 30-C , 87-H ) :   1.0030 B( 31-C , 88-H ) :   0.9789 B( 31-C , 89-H ) :   0.9779 
B( 31-C , 90-H ) :   0.9764 B( 32-N , 33-C ) :   1.0781 B( 32-N , 36-C ) :   1.3126 
B( 33-C , 34-C ) :   1.3179 B( 34-C , 35-C ) :   1.5385 B( 34-C , 37-C ) :   0.8478 
B( 35-C , 36-C ) :   1.1853 B( 35-C , 38-C ) :   0.9434 B( 35-C , 39-O ) :  -0.1359 
B( 35-C , 40-C ) :  -0.1145 B( 37-C , 91-H ) :   0.9788 B( 37-C , 92-H ) :   0.9983 
B( 37-C , 93-H ) :   0.9753 B( 38-C , 39-O ) :   2.2632 B( 38-C , 40-C ) :   0.9767 
B( 40-C , 41-C ) :   0.9302 B( 40-C , 94-H ) :   0.9411 B( 41-C , 42-O ) :   2.0264 
B( 41-C , 43-O ) :   1.2243 B( 43-O , 44-C ) :   0.8745 B( 44-C , 95-H ) :   0.9715 
B( 44-C , 96-H ) :   0.9719 B( 44-C , 97-H ) :   0.9667 B( 45-C , 46-C ) :   0.9728 
B( 45-C , 98-H ) :   0.9629 B( 45-C , 99-H ) :   0.9833 B( 46-C , 47-C ) :   1.8568 
B( 46-C ,100-H ) :   0.9466 B( 47-C , 48-C ) :   0.9257 B( 47-C , 49-C ) :   0.9419 
B( 48-C ,101-H ) :   0.9705 B( 48-C ,102-H ) :   0.9645 B( 48-C ,103-H ) :   0.9852 
B( 49-C , 50-C ) :   0.9212 B( 49-C ,104-H ) :   0.9786 B( 49-C ,105-H ) :   0.9870 
B( 50-C , 51-C ) :   0.9480 B( 50-C ,106-H ) :   0.9823 B( 50-C ,107-H ) :   0.9772 
B( 51-C , 52-C ) :   0.9642 B( 51-C ,108-H ) :   0.9827 B( 51-C ,109-H ) :   0.9680 
B( 52-C , 53-C ) :   0.9248 B( 52-C , 54-C ) :   0.9665 B( 52-C ,110-H ) :   0.9709 
B( 53-C ,111-H ) :   0.9850 B( 53-C ,112-H ) :   0.9856 B( 53-C ,113-H ) :   0.9683 
B( 54-C , 55-C ) :   0.9580 B( 54-C ,114-H ) :   0.9848 B( 54-C ,115-H ) :   0.9677 
B( 55-C , 56-C ) :   0.9601 B( 55-C ,116-H ) :   0.9864 B( 55-C ,117-H ) :   0.9695 
B( 56-C , 57-C ) :   0.9683 B( 56-C ,118-H ) :   0.9849 B( 56-C ,119-H ) :   0.9670 
B( 57-C , 58-C ) :   0.9213 B( 57-C , 59-C ) :   0.9699 B( 57-C ,120-H ) :   0.9695 
B( 58-C ,121-H ) :   0.9687 B( 58-C ,122-H ) :   0.9853 B( 58-C ,123-H ) :   0.9855 
B( 59-C , 60-C ) :   0.9571 B( 59-C ,124-H ) :   0.9838 B( 59-C ,125-H ) :   0.9671 
B( 60-C , 61-C ) :   0.9521 B( 60-C ,126-H ) :   0.9762 B( 60-C ,127-H ) :   0.9795 
B( 61-C , 62-C ) :   0.9603 B( 61-C ,128-H ) :   0.9744 B( 61-C ,129-H ) :   0.9759 
B( 62-C , 63-C ) :   0.9425 B( 62-C , 64-C ) :   0.9592 B( 62-C ,130-H ) :   0.9735 
B( 63-C ,131-H ) :   0.9697 B( 63-C ,132-H ) :   0.9817 B( 63-C ,133-H ) :   0.9820 
B( 64-C ,134-H ) :   0.9820 B( 64-C ,135-H ) :   0.9856 B( 64-C ,136-H ) :   0.9706 


-------
TIMINGS
-------

Total SCF time: 0 days 3 hours 47 min 32 sec 

Total time                  ....   13652.312 sec
Sum of individual times     ....   13115.268 sec  ( 96.1%)

SCF preparation             ....      27.020 sec  (  0.2%)
Fock matrix formation       ....   12856.588 sec  ( 94.2%)
  Startup                   ....       1.598 sec  (  0.0% of F)
  Split-RI-J                ....     560.050 sec  (  4.4% of F)
  Chain of spheres X        ....   11524.467 sec  ( 89.6% of F)
  XC integration            ....     646.442 sec  (  5.0% of F)
    XC Preparation          ....       0.000 sec  (  0.0% of XC)
    Basis function eval.    ....     163.158 sec  ( 25.2% of XC)
    Density eval.           ....     300.906 sec  ( 46.5% of XC)
    XC-Functional eval.     ....      18.625 sec  (  2.9% of XC)
    XC-Potential eval.      ....     142.149 sec  ( 22.0% of XC)
  CPCM terms                ....     664.674 sec  (  5.2% of F)
Diagonalization             ....       0.000 sec  (  0.0%)
Density matrix formation    ....      15.303 sec  (  0.1%)
Total Energy calculation    ....       8.846 sec  (  0.1%)
Population analysis         ....      19.277 sec  (  0.1%)
Orbital Transformation      ....      22.615 sec  (  0.2%)
Orbital Orthonormalization  ....       0.000 sec  (  0.0%)
DIIS solution               ....      60.458 sec  (  0.4%)
SOSCF solution              ....      84.292 sec  (  0.6%)
Finished LeanSCF after 13680.0 sec

Maximum memory used throughout the entire LEANSCF-calculation: 674.4 MB


           ************************************************************
           *        Program running with 4 parallel MPI-processes     *
           *              working on a common directory               *
           ************************************************************

------------------------------------------------------------------------------
                         ORCA PROPERTY INTEGRAL CALCULATIONS
------------------------------------------------------------------------------

GBWName                                   ... tddft.gbw
Number of atoms                           ...    137
Number of basis functions                 ...   2448
Max core memory                           ...   2200 MB

Dipole integrals                          ... YES
Quadrupole integrals                      ...  NO
Linear momentum integrals                 ... YES
Angular momentum integrals                ... YES
Higher moments length integrals           ...  NO
Higher moments velocity integrals         ...  NO
Kinetic energy integrals                  ...  NO
GIAO right hand sides                     ...  NO
GIAO dipole derivative integrals          ...  NO
SOC integrals                             ...  NO
EPR diamagnetic integrals (GIAO)          ...  NO
EPR gauge integrals                       ...  NO
Field gradient integrals                  ...  NO (   0 nuclei)
Spin-dipole/Fermi contact integrals       ...  NO (   0 nuclei)
Contact density integrals                 ...  NO (   0 nuclei)
Nucleus-orbit integrals                   ...  NO (   0 nuclei)
Geometric perturbations                   ...  NO ( 137 nuclei)

Choice of electric origin   ... Center of mass
Position of electric origin ... ( -0.0351, -0.0377, -0.2776) 
Choice of magnetic origin   ... GIAO
Position of magnetic origin ... (  0.0000,  0.0000,  0.0000) 

Calculating integrals                     ... Electric Dipole (Length)     done (  0.7 sec)
Calculating integrals                     ... Linear Momentum              done (  6.0 sec)
Calculating integrals                     ... Angular Momentum  (ElOri)    done (  2.4 sec)

Property integrals calculated in   9.3 sec

Maximum memory used throughout the entire PROPINT-calculation: 471.7 MB


           ************************************************************
           *        Program running with 4 parallel MPI-processes     *
           *              working on a common directory               *
           ************************************************************
------------------------------------------------------------------------------
                          ORCA TD-DFT CALCULATION
------------------------------------------------------------------------------

Input orbitals are from        ... tddft.gbw
CI-vector output               ... tddft.cis
Solver                         ... FN-2001
Tamm-Dancoff approximation     ... deactivated
RPA-Integral strategy          ... AO-integrals
Integral handling              ... AO integral Direct
Max. core memory used          ... 2200 MB
Reference state                ... RHF
Generation of triplets         ... off
Follow IRoot                   ... off
Number of operators            ... 1
Orbital ranges used for CIS calculation:
 Operator 0:  Orbitals  65...240  to 241...2447
XAS localization array:
 Operator 0:  Orbitals  -1... -1

-------------------
XC-INTEGRATION GRID
-------------------

General Integration Accuracy     IntAcc      ... 3.467
Radial Grid Type                 RadialGrid  ... OptM3 with GC (2021)
Angular Grid (max. ang.)         AngularGrid ... 3 (Lebedev-194)
Angular grid pruning method      GridPruning ... 4 (adaptive)
Weight generation scheme         WeightScheme... mBecke (2022)
Basis function cutoff            BFCut       ... 1.0000e-11
Integration weight cutoff        WCut        ... 1.0000e-14
Partially contracted basis set               ... off
Rotationally invariant grid construction     ... off
Angular grids for H and He will be reduced by one unit

Total number of grid points                  ...   230376
Total number of batches                      ...     3674
Average number of points per batch           ...       62
Average number of grid points per atom       ...     1682

---------------------
COSX-INTEGRATION GRID
---------------------

General Integration Accuracy     IntAcc      ... 3.067
Radial Grid Type                 RadialGrid  ... OptM3 with GC (2021)
Angular Grid (max. ang.)         AngularGrid ... 2 (Lebedev-110)
Angular grid pruning method      GridPruning ... 4 (adaptive)
Weight generation scheme         WeightScheme... mBecke (2022)
Basis function cutoff            BFCut       ... 1.0000e-11
Integration weight cutoff        WCut        ... 1.0000e-14
Partially contracted basis set               ... on
Rotationally invariant grid construction     ... off
Angular grids for H and He will be reduced by one unit

Total number of grid points                  ...    90751
Total number of batches                      ...      785
Average number of points per batch           ...      115
Average number of grid points per atom       ...      662

---------------
TD-DFT XC SETUP
---------------

DFT calculation                         ... on
Name of the grid file                   ... tddft.grid_cis.tmp
RI-approximation                        ... on
Aux-basis dimension                     ... 0
Exchange functional (TD-DFT)            ... WB88
Correlation functional (TD-DFT)         ... LYP
 LDA part of GGA corr.  LDAOpt (TD-DFT) ... VWN-5
Hybrid DFT                              ... on
   Exchange mixing (TD-DFT)             ...  0.190
   GGA exch. scaling (TD-DFT)           ...  0.350
   GGA corr. scaling (TD-DFT)           ...  0.810
Range-Separated Exchange                ... on
   Range Range separation parameter mu  .... 0.330
   Max. amount of RS exchange (TD-DFT)  ...  0.460

Building densities             ... done
Calculating rho(r) on the grid ... done
Building xc-kernel on the grid ... done
                    *** TD-DFT CALCULATION INITIALIZED ***

---------------------------------
    LR-CPCM (non-equilibrium)
---------------------------------

Setting up CPCM data             ... done

-------------------
RPA-DIAGONALIZATION
-------------------

Dimension of the (A+B)(A-B) eigenvalue problem ... 388432
Number of roots to be determined               ...     30
Maximum size of the expansion space            ...    900
Convergence tolerance for the residual         ...    2.500e-07
Convergence tolerance for the energies         ...    2.500e-07
Orthogonality tolerance                        ...    1.000e-14
Constructing the preconditioner                ... o.k.
Building the initial guess                     ... o.k.
Number of trial vectors determined             ...    900


                       ****Iteration    0****
   Time for iteration     :  TOTAL=20698.4 TRAFO=111.6 RIJ=1079.9 COSX=14773.7 XC=1924.4 CPCM=2740.9
   Size of expansion space: 90
   Lowest Energy          :     0.087180523599
   Maximum Energy change  :     0.223218182933 (vector 29)
   Maximum residual norm  :     0.037420214301

                       ****Iteration    1****
   Time for iteration     :  TOTAL=6175.2 TRAFO=31.4 RIJ=361.5 COSX=4407.9 XC=535.0 CPCM=813.6
   Size of expansion space: 120
   Lowest Energy          :     0.074920911391
   Maximum Energy change  :     0.015994698918 (vector 2)
   Maximum residual norm  :     0.005621814084

                       ****Iteration    2****
   Time for iteration     :  TOTAL=5637.1 TRAFO=28.7 RIJ=326.0 COSX=3939.6 XC=532.0 CPCM=790.5
   Size of expansion space: 150
   Lowest Energy          :     0.073474121844
   Maximum Energy change  :     0.004473695234 (vector 8)
   Maximum residual norm  :     0.002349925549

                       ****Iteration    3****
   Time for iteration     :  TOTAL=5423.8 TRAFO=26.4 RIJ=361.4 COSX=3711.3 XC=523.8 CPCM=786.7
   Size of expansion space: 180
   Lowest Energy          :     0.073229084624
   Maximum Energy change  :     0.002707540429 (vector 29)
   Maximum residual norm  :     0.001422857150

                       ****Iteration    4****
   Time for iteration     :  TOTAL=4514.2 TRAFO=24.6 RIJ=316.8 COSX=3073.6 XC=370.1 CPCM=707.6
   Size of expansion space: 210
   Lowest Energy          :     0.073194164238
   Maximum Energy change  :     0.001998831851 (vector 29)
   Maximum residual norm  :     0.000979632209

                       ****Iteration    5****
   Time for iteration     :  TOTAL=4595.2 TRAFO=27.2 RIJ=314.9 COSX=3170.8 XC=351.1 CPCM=718.7
   Size of expansion space: 240
   Lowest Energy          :     0.073191563508
   Maximum Energy change  :     0.000734196557 (vector 29)
   Maximum residual norm  :     0.000379093489

                       ****Iteration    6****
   Time for iteration     :  TOTAL=3043.9 TRAFO=17.4 RIJ=278.1 COSX=1934.9 XC=209.7 CPCM=596.6
   Size of expansion space: 270
   Lowest Energy          :     0.073190541955
   Maximum Energy change  :     0.000237465787 (vector 28)
   Maximum residual norm  :     0.000069078234

                       ****Iteration    7****
   Time for iteration     :  TOTAL=2548.2 TRAFO=14.2 RIJ=252.2 COSX=1594.8 XC=158.4 CPCM=522.2
   Size of expansion space: 300
   Lowest Energy          :     0.073190419206
   Maximum Energy change  :     0.000095127293 (vector 26)
   Maximum residual norm  :     0.000040258779

                       ****Iteration    8****
   Time for iteration     :  TOTAL=2585.4 TRAFO=14.4 RIJ=262.0 COSX=1599.0 XC=162.1 CPCM=541.5
   Size of expansion space: 330
   Lowest Energy          :     0.073190413295
   Maximum Energy change  :     0.000039247112 (vector 28)
   Maximum residual norm  :     0.000012423547

                       ****Iteration    9****
   Time for iteration     :  TOTAL=2594.1 TRAFO=14.3 RIJ=256.2 COSX=1620.2 XC=165.0 CPCM=531.8
   Size of expansion space: 360
   Lowest Energy          :     0.073190407185
   Maximum Energy change  :     0.000020038582 (vector 26)
   Maximum residual norm  :     0.000008795667

                       ****Iteration   10****
   Time for iteration     :  TOTAL=2597.8 TRAFO=14.3 RIJ=251.5 COSX=1646.2 XC=158.3 CPCM=521.2
   Size of expansion space: 390
   Lowest Energy          :     0.073190406901
   Maximum Energy change  :     0.000005872495 (vector 27)
   Maximum residual norm  :     0.000001506348

                       ****Iteration   11****
   Time for iteration     :  TOTAL=2601.5 TRAFO=14.3 RIJ=257.0 COSX=1626.8 XC=156.8 CPCM=540.1
   Size of expansion space: 420
   Lowest Energy          :     0.073190406852
   Maximum Energy change  :     0.000001408330 (vector 27)
   Maximum residual norm  :     0.000000584165

                       ****Iteration   12****
   Time for iteration     :  TOTAL=2599.5 TRAFO=13.8 RIJ=246.9 COSX=1670.9 XC=157.1 CPCM=504.6
   Size of expansion space: 450
   Lowest Energy          :     0.073190406842
   Maximum Energy change  :     0.000000350061 (vector 29)
   Maximum residual norm  :     0.000000084862

      *** CONVERGENCE OF RESIDUAL NORM REACHED ***

Storing the converged CI vectors               ... tddft.cis1

                 *** DAVIDSON DONE ***

Total time for solving the RPA problem: 66709.470sec

--------------------------------
TD-DFT EXCITED STATES (SINGLETS)
--------------------------------

the weight of the individual excitations are printed if larger than 1.0e-02

STATE  1:  E=   0.073190 au      1.992 eV    16063.4 cm**-1 <S**2> =   0.000000 Mult 1
   239a -> 242a  :     0.082729 
   240a -> 241a  :     0.888515 

STATE  2:  E=   0.088680 au      2.413 eV    19463.1 cm**-1 <S**2> =   0.000000 Mult 1
   239a -> 241a  :     0.724917 
   240a -> 242a  :     0.238324 

STATE  3:  E=   0.117650 au      3.201 eV    25821.2 cm**-1 <S**2> =   0.000000 Mult 1
   238a -> 241a  :     0.023324 
   239a -> 241a  :     0.219527 
   240a -> 242a  :     0.716970 

STATE  4:  E=   0.125026 au      3.402 eV    27439.9 cm**-1 <S**2> =   0.000000 Mult 1
   237a -> 241a  :     0.028335 
   238a -> 241a  :     0.741544 
   238a -> 242a  :     0.062971 
   238a -> 243a  :     0.014685 
   239a -> 241a  :     0.014571 
   239a -> 242a  :     0.077758 

STATE  5:  E=   0.129347 au      3.520 eV    28388.3 cm**-1 <S**2> =   0.000000 Mult 1
   237a -> 242a  :     0.015815 
   238a -> 241a  :     0.071226 
   239a -> 242a  :     0.755990 
   240a -> 241a  :     0.079797 
   240a -> 243a  :     0.013706 

STATE  6:  E=   0.136544 au      3.716 eV    29968.1 cm**-1 <S**2> =   0.000000 Mult 1
   235a -> 241a  :     0.030779 
   237a -> 241a  :     0.830209 
   237a -> 242a  :     0.039019 
   238a -> 241a  :     0.037507 
   238a -> 242a  :     0.021711 

STATE  7:  E=   0.148443 au      4.039 eV    32579.5 cm**-1 <S**2> =   0.000000 Mult 1
   233a -> 241a  :     0.485794 
   233a -> 242a  :     0.036758 
   233a -> 243a  :     0.283608 
   233a -> 244a  :     0.019904 
   233a -> 249a  :     0.011084 
   234a -> 241a  :     0.058504 
   234a -> 243a  :     0.024952 

STATE  8:  E=   0.149238 au      4.061 eV    32753.9 cm**-1 <S**2> =   0.000000 Mult 1
   235a -> 241a  :     0.764683 
   235a -> 242a  :     0.042975 
   237a -> 241a  :     0.032977 
   239a -> 242a  :     0.016390 
   240a -> 243a  :     0.079741 

STATE  9:  E=   0.152696 au      4.155 eV    33512.9 cm**-1 <S**2> =   0.000000 Mult 1
   233a -> 241a  :     0.011390 
   235a -> 241a  :     0.098994 
   239a -> 241a  :     0.010109 
   239a -> 242a  :     0.014894 
   239a -> 243a  :     0.074326 
   240a -> 243a  :     0.731065 

STATE 10:  E=   0.158862 au      4.323 eV    34866.2 cm**-1 <S**2> =   0.000000 Mult 1
   237a -> 241a  :     0.063489 
   237a -> 242a  :     0.652593 
   237a -> 249a  :     0.010843 
   238a -> 242a  :     0.217190 

STATE 11:  E=   0.163233 au      4.442 eV    35825.6 cm**-1 <S**2> =   0.000000 Mult 1
   232a -> 241a  :     0.010529 
   233a -> 241a  :     0.012425 
   234a -> 241a  :     0.053099 
   234a -> 243a  :     0.012188 
   239a -> 243a  :     0.741729 
   240a -> 243a  :     0.088138 
   240a -> 244a  :     0.019820 

STATE 12:  E=   0.169563 au      4.614 eV    37214.8 cm**-1 <S**2> =   0.000000 Mult 1
   230a -> 241a  :     0.053071 
   232a -> 242a  :     0.042593 
   233a -> 241a  :     0.037623 
   234a -> 241a  :     0.671919 
   235a -> 242a  :     0.036690 
   238a -> 242a  :     0.042617 
   239a -> 243a  :     0.041094 

STATE 13:  E=   0.170662 au      4.644 eV    37456.1 cm**-1 <S**2> =   0.000000 Mult 1
   217a -> 242a  :     0.010114 
   229a -> 241a  :     0.024268 
   230a -> 241a  :     0.770591 
   231a -> 241a  :     0.031743 
   233a -> 241a  :     0.030823 
   234a -> 241a  :     0.031365 

STATE 14:  E=   0.175530 au      4.776 eV    38524.3 cm**-1 <S**2> =   0.000000 Mult 1
   234a -> 241a  :     0.034197 
   237a -> 242a  :     0.214814 
   238a -> 241a  :     0.072089 
   238a -> 242a  :     0.553237 
   240a -> 244a  :     0.040000 

STATE 15:  E=   0.178193 au      4.849 eV    39108.8 cm**-1 <S**2> =   0.000000 Mult 1
   240a -> 244a  :     0.088854 
   240a -> 245a  :     0.840719 
   240a -> 246a  :     0.013038 

STATE 16:  E=   0.179995 au      4.898 eV    39504.4 cm**-1 <S**2> =   0.000000 Mult 1
   232a -> 241a  :     0.828685 
   234a -> 242a  :     0.010398 
   238a -> 242a  :     0.013879 
   239a -> 243a  :     0.011065 
   240a -> 243a  :     0.017029 
   240a -> 244a  :     0.019089 
   240a -> 245a  :     0.024640 

STATE 17:  E=   0.185586 au      5.050 eV    40731.5 cm**-1 <S**2> =   0.000000 Mult 1
   232a -> 241a  :     0.037594 
   238a -> 242a  :     0.024332 
   239a -> 243a  :     0.021495 
   239a -> 244a  :     0.032918 
   240a -> 244a  :     0.710707 
   240a -> 245a  :     0.079515 

STATE 18:  E=   0.190249 au      5.177 eV    41754.9 cm**-1 <S**2> =   0.000000 Mult 1
   239a -> 244a  :     0.153041 
   239a -> 245a  :     0.741270 
   240a -> 246a  :     0.015204 

STATE 19:  E=   0.191519 au      5.211 eV    42033.6 cm**-1 <S**2> =   0.000000 Mult 1
   214a -> 241a  :     0.025993 
   217a -> 241a  :     0.182950 
   224a -> 241a  :     0.101319 
   226a -> 241a  :     0.178327 
   228a -> 241a  :     0.010669 
   229a -> 242a  :     0.012454 
   230a -> 242a  :     0.344927 
   231a -> 242a  :     0.014028 
   233a -> 242a  :     0.019452 
   233a -> 243a  :     0.011956 

STATE 20:  E=   0.193193 au      5.257 eV    42400.9 cm**-1 <S**2> =   0.000000 Mult 1
   234a -> 241a  :     0.012899 
   234a -> 242a  :     0.061746 
   235a -> 241a  :     0.017481 
   235a -> 242a  :     0.544573 
   239a -> 244a  :     0.125029 
   239a -> 245a  :     0.079470 
   240a -> 246a  :     0.037484 
   240a -> 249a  :     0.010787 

STATE 21:  E=   0.196215 au      5.339 eV    43064.3 cm**-1 <S**2> =   0.000000 Mult 1
   234a -> 241a  :     0.023338 
   235a -> 241a  :     0.014826 
   235a -> 242a  :     0.258107 
   239a -> 244a  :     0.392361 
   239a -> 245a  :     0.081348 
   239a -> 246a  :     0.030861 
   239a -> 250a  :     0.021000 
   240a -> 244a  :     0.015566 
   240a -> 246a  :     0.067810 

STATE 22:  E=   0.198787 au      5.409 eV    43628.7 cm**-1 <S**2> =   0.000000 Mult 1
   217a -> 241a  :     0.093661 
   224a -> 241a  :     0.078077 
   226a -> 241a  :     0.330430 
   229a -> 241a  :     0.058137 
   233a -> 241a  :     0.027646 
   233a -> 243a  :     0.027724 
   236a -> 241a  :     0.266795 

STATE 23:  E=   0.200033 au      5.443 eV    43902.1 cm**-1 <S**2> =   0.000000 Mult 1
   234a -> 242a  :     0.017194 
   234a -> 246a  :     0.018812 
   238a -> 244a  :     0.013918 
   239a -> 244a  :     0.096229 
   239a -> 246a  :     0.209368 
   239a -> 249a  :     0.010048 
   240a -> 246a  :     0.546751 
   240a -> 249a  :     0.014919 

STATE 24:  E=   0.202023 au      5.497 eV    44339.0 cm**-1 <S**2> =   0.000000 Mult 1
   217a -> 241a  :     0.023859 
   224a -> 241a  :     0.028935 
   226a -> 241a  :     0.127555 
   233a -> 241a  :     0.023834 
   233a -> 243a  :     0.014736 
   236a -> 241a  :     0.701968 

STATE 25:  E=   0.203150 au      5.528 eV    44586.3 cm**-1 <S**2> =   0.000000 Mult 1
   224a -> 241a  :     0.016496 
   234a -> 242a  :     0.392406 
   234a -> 243a  :     0.026057 
   235a -> 242a  :     0.029716 
   235a -> 243a  :     0.019891 
   239a -> 244a  :     0.042661 
   239a -> 250a  :     0.013549 
   240a -> 244a  :     0.012476 
   240a -> 246a  :     0.019976 
   240a -> 247a  :     0.034491 
   240a -> 249a  :     0.202234 
   240a -> 250a  :     0.044949 
   240a -> 251a  :     0.014320 
   240a -> 254a  :     0.018519 

STATE 26:  E=   0.203643 au      5.541 eV    44694.6 cm**-1 <S**2> =   0.000000 Mult 1
   226a -> 241a  :     0.014006 
   234a -> 242a  :     0.137475 
   235a -> 243a  :     0.020862 
   238a -> 244a  :     0.013119 
   239a -> 249a  :     0.012494 
   239a -> 250a  :     0.011607 
   240a -> 247a  :     0.117080 
   240a -> 248a  :     0.027004 
   240a -> 249a  :     0.032015 
   240a -> 250a  :     0.463517 

STATE 27:  E=   0.208161 au      5.664 eV    45686.1 cm**-1 <S**2> =   0.000000 Mult 1
   226a -> 241a  :     0.022130 
   228a -> 246a  :     0.010481 
   230a -> 242a  :     0.030057 
   232a -> 242a  :     0.062127 
   232a -> 243a  :     0.017936 
   233a -> 241a  :     0.016812 
   233a -> 242a  :     0.010092 
   233a -> 243a  :     0.012996 
   234a -> 243a  :     0.029543 
   235a -> 243a  :     0.201641 
   235a -> 244a  :     0.012527 
   237a -> 243a  :     0.011991 
   237a -> 244a  :     0.024735 
   238a -> 243a  :     0.059982 
   238a -> 244a  :     0.112339 
   239a -> 246a  :     0.015682 
   239a -> 250a  :     0.019623 
   240a -> 249a  :     0.110451 
   240a -> 253a  :     0.019581 
   240a -> 254a  :     0.029852 

STATE 28:  E=   0.208403 au      5.671 eV    45739.2 cm**-1 <S**2> =   0.000000 Mult 1
   226a -> 241a  :     0.089920 
   226a -> 242a  :     0.014995 
   230a -> 241a  :     0.018394 
   230a -> 242a  :     0.142503 
   230a -> 243a  :     0.010334 
   233a -> 241a  :     0.172488 
   233a -> 242a  :     0.012102 
   233a -> 243a  :     0.145455 
   233a -> 244a  :     0.027268 
   233a -> 249a  :     0.017007 
   234a -> 241a  :     0.010033 
   234a -> 242a  :     0.018163 
   239a -> 246a  :     0.014784 
   239a -> 250a  :     0.015542 
   240a -> 249a  :     0.067708 
   240a -> 250a  :     0.016693 
   240a -> 254a  :     0.011448 

STATE 29:  E=   0.208986 au      5.687 eV    45867.2 cm**-1 <S**2> =   0.000000 Mult 1
   217a -> 241a  :     0.029424 
   224a -> 241a  :     0.065741 
   228a -> 241a  :     0.030596 
   230a -> 242a  :     0.027017 
   233a -> 241a  :     0.075010 
   233a -> 242a  :     0.035040 
   233a -> 243a  :     0.130079 
   234a -> 242a  :     0.020296 
   235a -> 243a  :     0.101533 
   239a -> 246a  :     0.032249 
   239a -> 247a  :     0.011012 
   239a -> 249a  :     0.027843 
   239a -> 250a  :     0.014863 
   240a -> 246a  :     0.016283 
   240a -> 249a  :     0.110631 
   240a -> 250a  :     0.088684 

STATE 30:  E=   0.209200 au      5.693 eV    45914.2 cm**-1 <S**2> =   0.000000 Mult 1
   217a -> 241a  :     0.019225 
   230a -> 242a  :     0.013452 
   233a -> 242a  :     0.010453 
   233a -> 243a  :     0.011236 
   234a -> 243a  :     0.010806 
   235a -> 243a  :     0.173072 
   235a -> 244a  :     0.018578 
   237a -> 243a  :     0.055073 
   237a -> 244a  :     0.025097 
   238a -> 243a  :     0.071579 
   238a -> 244a  :     0.284144 
   239a -> 249a  :     0.012342 
   239a -> 250a  :     0.011090 
   240a -> 250a  :     0.035520 
   240a -> 253a  :     0.031488 
   240a -> 254a  :     0.030811 


-----------------------------
 TD-DFT-EXCITATION SPECTRA
-----------------------------

Center of mass = ( -0.0351, -0.0377, -0.2776)
Generating RPA transition densities
 done

----------------------------------------------------------------------------------------------------
                     ABSORPTION SPECTRUM VIA TRANSITION ELECTRIC DIPOLE MOMENTS    
----------------------------------------------------------------------------------------------------
     Transition      Energy     Energy  Wavelength fosc(D2)      D2        DX        DY        DZ   
                      (eV)      (cm-1)    (nm)                 (au**2)    (au)      (au)      (au)  
----------------------------------------------------------------------------------------------------
  0-1A  ->  1-1A    1.991612   16063.4   622.5   0.394780156   8.09082  -0.45349  -2.02518   1.94520
  0-1A  ->  2-1A    2.413113   19463.1   513.8   0.075088902   1.27011  -0.79929   0.78599  -0.11599
  0-1A  ->  3-1A    3.201420   25821.2   387.3   1.201011669  15.31251   3.22726  -2.14548  -0.54243
  0-1A  ->  4-1A    3.402119   27439.9   364.4   0.293916655   3.52628  -0.52474   1.53655  -0.94336
  0-1A  ->  5-1A    3.519702   28388.3   352.3   1.032650198  11.97538   0.88565   2.32991  -2.40052
  0-1A  ->  6-1A    3.715564   29968.1   333.7   0.025840988   0.28387   0.32885   0.19716  -0.36995
  0-1A  ->  7-1A    4.039348   32579.5   306.9   0.007869422   0.07952  -0.27221   0.07009   0.02256
  0-1A  ->  8-1A    4.060971   32753.9   305.3   0.124930309   1.25568   0.95447  -0.46605  -0.35703
  0-1A  ->  9-1A    4.155070   33512.9   298.4   0.140599960   1.38118   1.05250  -0.50161  -0.14770
  0-1A  -> 10-1A    4.322856   34866.2   286.8   0.086175826   0.81369  -0.06371   0.69619  -0.57005
  0-1A  -> 11-1A    4.441807   35825.6   279.1   0.163143345   1.49917  -0.92858  -0.16845   0.78008
  0-1A  -> 12-1A    4.614043   37214.8   268.7   0.083958932   0.74272   0.16745   0.63058  -0.56307
  0-1A  -> 13-1A    4.643961   37456.1   267.0   0.005060440   0.04448   0.11339   0.09674  -0.14920
  0-1A  -> 14-1A    4.776403   38524.3   259.6   0.055853224   0.47730   0.02979  -0.50317   0.47247
  0-1A  -> 15-1A    4.848878   39108.8   255.7   0.002415327   0.02033   0.05503  -0.12681   0.03496
  0-1A  -> 16-1A    4.897916   39504.4   253.1   0.071036085   0.59198  -0.53008  -0.09282   0.54990
  0-1A  -> 17-1A    5.050063   40731.5   245.5   0.206498417   1.66902  -0.96025   0.85307  -0.13858
  0-1A  -> 18-1A    5.176942   41754.9   239.5   0.000516715   0.00407  -0.04032   0.02427  -0.04312
  0-1A  -> 19-1A    5.211500   42033.6   237.9   0.003537356   0.02770   0.13625   0.00506  -0.09548
  0-1A  -> 20-1A    5.257042   42400.9   235.8   0.020835386   0.16177   0.19035   0.13299  -0.32841
  0-1A  -> 21-1A    5.339289   43064.3   232.2   0.064177111   0.49061  -0.14220   0.58117  -0.36418
  0-1A  -> 22-1A    5.409265   43628.7   229.2   0.001876301   0.01416   0.03596  -0.10779   0.03530
  0-1A  -> 23-1A    5.443172   43902.1   227.8   0.013119982   0.09838   0.21051  -0.04149  -0.22880
  0-1A  -> 24-1A    5.497331   44339.0   225.5   0.003041239   0.02258  -0.00669  -0.14291   0.04598
  0-1A  -> 25-1A    5.528001   44586.3   224.3   0.013141710   0.09703  -0.10592  -0.27325   0.10559
  0-1A  -> 26-1A    5.541419   44694.6   223.7   0.062513867   0.46047   0.07715  -0.54917   0.39106
  0-1A  -> 27-1A    5.664351   45686.1   218.9   0.027542720   0.19847   0.24360  -0.36587  -0.07258
  0-1A  -> 28-1A    5.670935   45739.2   218.6   0.004635055   0.03336  -0.12912  -0.09277   0.08990
  0-1A  -> 29-1A    5.686811   45867.2   218.0   0.053138445   0.38140  -0.56120   0.22561   0.12474
  0-1A  -> 30-1A    5.692630   45914.2   217.8   0.403763339   2.89505   1.12056  -1.22784   0.36304

----------------------------------------------------------------------------------------------------
                     ABSORPTION SPECTRUM VIA TRANSITION VELOCITY DIPOLE MOMENTS    
----------------------------------------------------------------------------------------------------
     Transition      Energy     Energy  Wavelength fosc(P2)      P2        PX        PY        PZ   
                      (eV)      (cm-1)    (nm)                 (au**2)    (au)      (au)      (au)  
----------------------------------------------------------------------------------------------------
  0-1A  ->  1-1A    1.991612   16063.4   622.5   0.391864258   0.04302   0.03319   0.14750  -0.14200
  0-1A  ->  2-1A    2.413113   19463.1   513.8   0.075070404   0.00999   0.07101  -0.06958   0.01011
  0-1A  ->  3-1A    3.201420   25821.2   387.3   1.193560359   0.21063  -0.37832   0.25206   0.06306
  0-1A  ->  4-1A    3.402119   27439.9   364.4   0.292005079   0.05476   0.06471  -0.19147   0.11795
  0-1A  ->  5-1A    3.519702   28388.3   352.3   1.027070282   0.19927  -0.11421  -0.30037   0.30984
  0-1A  ->  6-1A    3.715564   29968.1   333.7   0.025624340   0.00525  -0.04529  -0.02619   0.05011
  0-1A  ->  7-1A    4.039348   32579.5   306.9   0.007900087   0.00176   0.04040  -0.01061  -0.00373
  0-1A  ->  8-1A    4.060971   32753.9   305.3   0.124638184   0.02790  -0.14239   0.06898   0.05355
  0-1A  ->  9-1A    4.155070   33512.9   298.4   0.141072226   0.03231  -0.16111   0.07643   0.02265
  0-1A  -> 10-1A    4.322856   34866.2   286.8   0.085786430   0.02044   0.01044  -0.11035   0.09032
  0-1A  -> 11-1A    4.441807   35825.6   279.1   0.161976863   0.03966   0.15114   0.02729  -0.12678
  0-1A  -> 12-1A    4.614043   37214.8   268.7   0.083693807   0.02129  -0.02877  -0.10666   0.09531
  0-1A  -> 13-1A    4.643961   37456.1   267.0   0.005100878   0.00131  -0.01974  -0.01639   0.02545
  0-1A  -> 14-1A    4.776403   38524.3   259.6   0.055377458   0.01458  -0.00492   0.08802  -0.08251
  0-1A  -> 15-1A    4.848878   39108.8   255.7   0.002513044   0.00067  -0.01018   0.02310  -0.00588
  0-1A  -> 16-1A    4.897916   39504.4   253.1   0.071209461   0.01923   0.09575   0.01648  -0.09893
  0-1A  -> 17-1A    5.050063   40731.5   245.5   0.205282519   0.05715   0.17797  -0.15752   0.02568
  0-1A  -> 18-1A    5.176942   41754.9   239.5   0.000555109   0.00016   0.00832  -0.00393   0.00858
  0-1A  -> 19-1A    5.211500   42033.6   237.9   0.003556916   0.00102  -0.02621  -0.00115   0.01827
  0-1A  -> 20-1A    5.257042   42400.9   235.8   0.021202367   0.00614  -0.03729  -0.02579   0.06395
  0-1A  -> 21-1A    5.339289   43064.3   232.2   0.063661439   0.01874   0.02814  -0.11362   0.07097
  0-1A  -> 22-1A    5.409265   43628.7   229.2   0.001879882   0.00056  -0.00648   0.02183  -0.00648
  0-1A  -> 23-1A    5.443172   43902.1   227.8   0.013331600   0.00400  -0.04243   0.00821   0.04618
  0-1A  -> 24-1A    5.497331   44339.0   225.5   0.003033669   0.00092   0.00160   0.02895  -0.00886
  0-1A  -> 25-1A    5.528001   44586.3   224.3   0.013035539   0.00397   0.02133   0.05546  -0.02101
  0-1A  -> 26-1A    5.541419   44694.6   223.7   0.061579216   0.01881  -0.01626   0.11107  -0.07880
  0-1A  -> 27-1A    5.664351   45686.1   218.9   0.026927447   0.00841  -0.05109   0.07446   0.01593
  0-1A  -> 28-1A    5.670935   45739.2   218.6   0.004503133   0.00141   0.02696   0.01912  -0.01776
  0-1A  -> 29-1A    5.686811   45867.2   218.0   0.052578526   0.01648   0.11679  -0.04647  -0.02613
  0-1A  -> 30-1A    5.692630   45914.2   217.8   0.401281019   0.12592  -0.23412   0.25561  -0.07599

------------------------------------------------------------------------------------------
                     CD SPECTRUM VIA TRANSITION ELECTRIC DIPOLE MOMENTS    
------------------------------------------------------------------------------------------
     Transition      Energy     Energy  Wavelength    R        MX        MY        MZ   
                      (eV)      (cm-1)    (nm)   (1e40*cgs)   (au)      (au)      (au)  
------------------------------------------------------------------------------------------
  0-1A  ->  1-1A    1.991612   16063.4   622.5  -15.20507   0.50828   1.34741   1.53788
  0-1A  ->  2-1A    2.413113   19463.1   513.8    2.59948   0.13220   0.10320  -0.16412
  0-1A  ->  3-1A    3.201420   25821.2   387.3   48.66279  -0.08803  -0.42200   1.33567
  0-1A  ->  4-1A    3.402119   27439.9   364.4   30.27648   0.14179  -0.44856  -0.74142
  0-1A  ->  5-1A    3.519702   28388.3   352.3   14.24664  -0.24133  -1.93441  -1.95396
  0-1A  ->  6-1A    3.715564   29968.1   333.7    3.48644  -0.27257  -0.60729  -0.54594
  0-1A  ->  7-1A    4.039348   32579.5   306.9   -6.88051   0.01778   0.37622  -0.30740
  0-1A  ->  8-1A    4.060971   32753.9   305.3    4.58209   0.14481  -0.11785   0.56818
  0-1A  ->  9-1A    4.155070   33512.9   298.4   18.28468   0.00078  -0.05450   0.45324
  0-1A  -> 10-1A    4.322856   34866.2   286.8   -5.05754  -0.33780  -0.90752  -1.08940
  0-1A  -> 11-1A    4.441807   35825.6   279.1   21.63356  -0.01049   0.60163   0.05861
  0-1A  -> 12-1A    4.614043   37214.8   268.7  -11.58581   0.22088  -0.22985  -0.23537
  0-1A  -> 13-1A    4.643961   37456.1   267.0   21.14481  -0.02573  -0.20157   0.15035
  0-1A  -> 14-1A    4.776403   38524.3   259.6   -3.04419   0.15062   0.58860   0.63102
  0-1A  -> 15-1A    4.848878   39108.8   255.7    0.41570  -0.03001   0.03356   0.14372
  0-1A  -> 16-1A    4.897916   39504.4   253.1   20.89898   0.04930   0.54017   0.05808
  0-1A  -> 17-1A    5.050063   40731.5   245.5  -14.48793   0.00400  -0.08039  -0.74431
  0-1A  -> 18-1A    5.176942   41754.9   239.5    3.22595   0.11131  -0.07454   0.01267
  0-1A  -> 19-1A    5.211500   42033.6   237.9    4.12184  -0.07450   0.00956  -0.01423
  0-1A  -> 20-1A    5.257042   42400.9   235.8    5.70215  -0.15785  -0.52757  -0.26830
  0-1A  -> 21-1A    5.339289   43064.3   232.2  -14.43184   0.07746  -0.32813  -0.63794
  0-1A  -> 22-1A    5.409265   43628.7   229.2    2.22692   0.04245   0.12444   0.20292
  0-1A  -> 23-1A    5.443172   43902.1   227.8   -0.16527  -0.01551  -0.25806   0.03099
  0-1A  -> 24-1A    5.497331   44339.0   225.5    3.26923   0.04574   0.09785   0.15997
  0-1A  -> 25-1A    5.528001   44586.3   224.3   -8.75342  -0.06228   0.01993   0.16493
  0-1A  -> 26-1A    5.541419   44694.6   223.7   -4.53158  -0.05410   0.27673   0.42387
  0-1A  -> 27-1A    5.664351   45686.1   218.9   51.49743   0.21650   0.28982   0.77066
  0-1A  -> 28-1A    5.670935   45739.2   218.6  -23.25765  -0.14843  -0.00531   0.33007
  0-1A  -> 29-1A    5.686811   45867.2   218.0  -41.63873  -0.27942   0.04270  -0.62626
  0-1A  -> 30-1A    5.692630   45914.2   217.8   -3.66262   0.34328   0.76857   1.56125

------------------------------------------------------------------------------------------
                     CD SPECTRUM VIA TRANSITION VELOCITY DIPOLE MOMENTS    
------------------------------------------------------------------------------------------
     Transition      Energy     Energy  Wavelength    R        MX        MY        MZ   
                      (eV)      (cm-1)    (nm)   (1e40*cgs)   (au)      (au)      (au)  
------------------------------------------------------------------------------------------
  0-1A  ->  1-1A    1.991612   16063.4   622.5  -17.82559   0.50828   1.34741   1.53788
  0-1A  ->  2-1A    2.413113   19463.1   513.8    2.91691   0.13220   0.10320  -0.16412
  0-1A  ->  3-1A    3.201420   25821.2   387.3   44.71326  -0.08803  -0.42200   1.33567
  0-1A  ->  4-1A    3.402119   27439.9   364.4   28.71811   0.14179  -0.44856  -0.74142
  0-1A  ->  5-1A    3.519702   28388.3   352.3   11.62784  -0.24133  -1.93441  -1.95396
  0-1A  ->  6-1A    3.715564   29968.1   333.7    3.07268  -0.27257  -0.60729  -0.54594
  0-1A  ->  7-1A    4.039348   32579.5   306.9   -6.75525   0.01778   0.37622  -0.30740
  0-1A  ->  8-1A    4.060971   32753.9   305.3    5.29743   0.14481  -0.11785   0.56818
  0-1A  ->  9-1A    4.155070   33512.9   298.4   18.44642   0.00078  -0.05450   0.45324
  0-1A  -> 10-1A    4.322856   34866.2   286.8   -5.26877  -0.33780  -0.90752  -1.08940
  0-1A  -> 11-1A    4.441807   35825.6   279.1   21.37591  -0.01049   0.60163   0.05861
  0-1A  -> 12-1A    4.614043   37214.8   268.7  -11.87805   0.22088  -0.22985  -0.23537
  0-1A  -> 13-1A    4.643961   37456.1   267.0   21.09848  -0.02573  -0.20157   0.15035
  0-1A  -> 14-1A    4.776403   38524.3   259.6   -2.67696   0.15062   0.58860   0.63102
  0-1A  -> 15-1A    4.848878   39108.8   255.7    0.62320  -0.03001   0.03356   0.14372
  0-1A  -> 16-1A    4.897916   39504.4   253.1   20.62970   0.04930   0.54017   0.05808
  0-1A  -> 17-1A    5.050063   40731.5   245.5  -14.57507   0.00400  -0.08039  -0.74431
  0-1A  -> 18-1A    5.176942   41754.9   239.5    3.29193   0.11131  -0.07454   0.01267
  0-1A  -> 19-1A    5.211500   42033.6   237.9    4.13836  -0.07450   0.00956  -0.01423
  0-1A  -> 20-1A    5.257042   42400.9   235.8    5.69364  -0.15785  -0.52757  -0.26830
  0-1A  -> 21-1A    5.339289   43064.3   232.2  -13.97140   0.07746  -0.32813  -0.63794
  0-1A  -> 22-1A    5.409265   43628.7   229.2    2.67249   0.04245   0.12444   0.20292
  0-1A  -> 23-1A    5.443172   43902.1   227.8   -0.07068  -0.01551  -0.25806   0.03099
  0-1A  -> 24-1A    5.497331   44339.0   225.5    3.47447   0.04574   0.09785   0.15997
  0-1A  -> 25-1A    5.528001   44586.3   224.3   -8.56005  -0.06228   0.01993   0.16493
  0-1A  -> 26-1A    5.541419   44694.6   223.7   -4.13493  -0.05410   0.27673   0.42387
  0-1A  -> 27-1A    5.664351   45686.1   218.9   51.62092   0.21650   0.28982   0.77066
  0-1A  -> 28-1A    5.670935   45739.2   218.6  -22.54261  -0.14843  -0.00531   0.33007
  0-1A  -> 29-1A    5.686811   45867.2   218.0  -41.17982  -0.27942   0.04270  -0.62626
  0-1A  -> 30-1A    5.692630   45914.2   217.8   -5.74042   0.34328   0.76857   1.56125

Total run time:    66802.197 sec

           *** ORCA-CIS/TD-DFT FINISHED WITHOUT ERROR ***
-----------------------
CIS/TD-DFT TOTAL ENERGY
-----------------------

    E(SCF)  =  -2934.194231364 Eh
    DE(CIS) =      0.073190407 Eh (Root  1)
    ----------------------------- ---------
    E(tot)  =  -2934.121040958 Eh


Maximum memory used throughout the entire CIS-calculation: 1737.7 MB
=> NOW LEAVING ORCA_CIS

-------------------------   --------------------
FINAL SINGLE POINT ENERGY     -2934.121040957622
-------------------------   --------------------



           ************************************************************
           *        Program running with 4 parallel MPI-processes     *
           *              working on a common directory               *
           ************************************************************

------------------------------------------------------------------------------
                              ORCA PROPERTY CALCULATIONS
------------------------------------------------------------------------------

GBWName                                 ... tddft.gbw
Number of atoms                         ...    137
Number of basis functions               ...   2448
Max core memory                         ...   2200 MB

Electric properties:
Dipole moment                           ... YES
Quadrupole moment                       ...  NO
Static polarizability (Dipole/Dipole)   ...  NO
Static polarizability (Dipole/Quad.)    ...  NO
Static polarizability (Quad./Quad.)     ...  NO
Static polarizability (Velocity)        ...  NO
Static hyperpolarizability              ...  NO

Atomic electric properties:
Dipole moment                           ...  NO
Quadrupole moment                       ...  NO
Static polarizability                   ...  NO

Choice of electric origin               ... Center of mass
Position of electric origin             ...    -0.035095    -0.037699    -0.277632

General magnetic properties:
Magnetizability                         ...  NO

EPR properties:
g-Tensor (aka g-matrix)                 ...  NO
Zero-Field splitting spin-orbit         ...  NO
Zero-field splitting spin-spin          ...  NO
Hyperfine couplings                     ...  NO (   0 nuclei)
Quadrupole couplings                    ...  NO (   0 nuclei)
Contact density                         ...  NO (   0 nuclei)

NMR properties:
Chemical shifts                         ...  NO (   0 nuclei)
Spin-rotation constants                 ...  NO (   0 nuclei)
Spin-spin couplings                     ...  NO (   0 nuclei,    0 pairs)

Choice of magnetic origin               ... GIAO
Position of magnetic origin             ...     0.000000     0.000000     0.000000

Properties with geometric perturbations:
SCF Hessian                             ...  NO
IR spectrum                             ...  NO
VCD spectrum                            ...  NO
X-ray spectroscopy properties:
SCF XES/XAS/RIXS spectra                ...  NO

SCF SOC stabilization energy            ...  NO
Diagonal Born-Oppenheimer correction    ...  NO

-------------
DIPOLE MOMENT
-------------

Method             : SCF
Type of density    : Electron Density
Multiplicity       :   1
Irrep              :   0
Energy             : -2934.1942313644649403 Eh
Basis              : AO
                                X                 Y                 Z
Electronic contribution:    281.284760066      20.657414551     -19.379974406
Nuclear contribution   :   -282.757873404     -22.950399894      21.290669736
                        -----------------------------------------
Total Dipole Moment    :     -1.473113339      -2.292985343       1.910695331
                        -----------------------------------------
Magnitude (a.u.)       :      3.328453295
Magnitude (Debye)      :      8.460255929



--------------------
Rotational spectrum 
--------------------
 
Rotational constants in cm-1:             0.001822             0.000215             0.000199 
Rotational constants in MHz :            54.623989             6.434735             5.973951 

Dipole components along the rotational axes: 
x,y,z [a.u.] :     1.564339     2.905058    -0.438274 
x,y,z [Debye]:     3.976233     7.384071    -1.114003 

 

Dipole moment calculation done in   0.3 sec 

Maximum memory used throughout the entire PROP-calculation: 402.3 MB

--------------------------------
SUGGESTED CITATIONS FOR THIS RUN
--------------------------------

Below you find a list of papers that are relevant to this ORCA run
We neither can nor want to force you to cite these papers, but we appreciate if you do
You receive ORCA, which is the product of decades of hard work by many enthusiastic individuals, for free
The only thing we kindly ask in return is that you cite our papers,
We deeply appreciate it, if you show your appreciation for ORCA by not just citing the generic ORCA reference.

Please note that relegating all ORCA citations to the supporting information does *not* help us.
SI sections are not indexed - citations you put there will not count into any citation statistics
But we need these citations in order to attract the funding resources that allow us to do what we are doing

Therefore, if you are a happy ORCA user, please consider citing a few of the papers listed below in the main body of your paper

In addition to the list printed below, the program has created the file tddft.bibtex that contains the list in bibtex format
You can import this file easily into all common literature databanks and citation aid programs

It goes without saying that in many instances, there are alternative algorithms to achieve similar
results as the ones you have gotten from ORCA. It is, of course, also the case that in some instances
ORCA just re-implements algorithms worked out by others. We are fully aware of that and we are also
fully appreciative of our colleagues work. Hence this citation list should not be read as indicating
that the listed papers, which are focused on our own work, are the only ones worth citing. It simply
meant to make it easier for users to cite ORCA specific papers. It is not a substitute for doing your
own literature research and citing the relevant literature in a scientifically appropriate manner.

List of essential papers. We consider these as the minimum necessary citations

  1. Neese, F.
     Software update: the ORCA program system, version 6.0
     WIRES Comput. Molec. Sci. 2025 15(1), e70019
     doi.org/10.1002/wcms.70019

List of papers to cite with high priority. The work reported in these papers was absolutely
necessary for this run to complete.
Our perspective: the developers of density functionals and basis sets usually get cited in chemistry papers
Good! But without the algorithms to do something with them, the functionals or basis sets would not do anything.
Hence, in our opinion, the algorithm design and method developments papers are equally worthy of getting cited

  1. Neese, F.; Olbrich, G.
     Efficient use of the resolution of the identity approximation in time-dependent density functional calculations with hybrid density functionals
     Chem. Phys. Lett. 2002 362 , 170-178
     doi.org/10.1016/s0009-2614(02)01053-9
  2. Neese, F.
     An improvement of the resolution of the identity approximation for the formation of the Coulomb matrix
     J. Comp. Chem. 2003 24(14), 1740-1747
     doi.org/10.1002/jcc.10318
  3. Neese, F.; Wennmohs, F.; Hansen, A.; Becker, U.
     Efficient, approximate and parallel Hartree-Fock and hybrid DFT calculations. A 'chain-of-spheres' algorithm for the Hartree-Fock exchange
     Chem. Phys. 2009 356(1-3), 98-109
     doi.org/10.1016/j.chemphys.2008.10.036
  4. Garcia-Rates, M.; Neese, F.
     Effect of the Solute Cavity on the Solvation Energy and its Derivatives within the Framework of the Gaussian Charge Scheme
     J. Comput. Chem. 2020 41 , 922-939
     doi.org/10.1002/jcc.26139
  5. Helmich-Paris, B.; de Souza, B.; Neese, F.; Izsák, R.
     An improved chain of spheres for exchange algorithm
     J. Chem. Phys. 2021 155(10), 104109
     doi.org/10.1063/5.0058766
  6. Neese, F.
     The SHARK Integral Generation and Digestion System
     J. Comp. Chem. 2022 44(3), 381
     doi.org/10.1002/jcc.26942

List of suggested additional citations. These are papers that are important in the 'surrounding' of 
of this run, or papers that preceded the highly important papers. If you like your results we are grateful for a citation.

  1. Izsak, R.; Neese, F.
     An overlap fitted chain of spheres exchange method
     J. Chem. Phys. 2011 135 , 144105
     doi.org/10.1063/1.3646921
  2. Izsak, R.; Hansen, A.; Neese, F.
     The resolution of identity and chain of spheres approximations for the LPNO-CCSD singles Fock term
     Molec. Phys. 2012 110 , 2413-2417
     doi.org/10.1080/00268976.2012.687466
  3. Neese, F.
     The ORCA program system
     WIRES Comput. Molec. Sci. 2012 2(1), 73-78
     doi.org/10.1002/wcms.81
  4. Izsak, R.; Neese, F.; Klopper, W.
     Robust fitting techniques in the chain of spheres approximation to the Fock exchange: The role of the complementary space
     J. Chem. Phys. 2013 139 , 
     doi.org/10.1063/1.4819264
  5. Neese, F.
     Software update: the ORCA program system, version 4.0
     WIRES Comput. Molec. Sci. 2018 8(1), 1-6
     doi.org/10.1002/wcms.1327
  6. Neese, F.; Wennmohs, F.; Becker, U.; Riplinger, C.
     The ORCA quantum chemistry program package
     J. Chem. Phys. 2020 152(22), 224108
     doi.org/10.1063/5.0004608
  7. Neese, F.
     Software update: The ORCA program system—Version 5.0
     WIRES Comput. Molec. Sci. 2022 12(1), e1606
     doi.org/10.1002/wcms.1606

List of optional additional citations

  1. Neese, F.
     Approximate second-order SCF convergence for spin unrestricted wavefunctions
     Chem. Phys. Lett. 2000 325(1-3), 93-98
     doi.org/10.1016/s0009-2614(00)00662-x

Timings for individual modules:

Sum of individual times          ...    80616.503 sec (=1343.608 min)
Startup calculation              ...       83.932 sec (=   1.399 min)   0.1 %
SCF iterations                   ...    13716.838 sec (= 228.614 min)  17.0 %
Property integrals               ...       10.918 sec (=   0.182 min)   0.0 %
Property calculations            ...        1.918 sec (=   0.032 min)   0.0 %
CIS module                       ...    66802.898 sec (=1113.382 min)  82.9 %
                             ****ORCA TERMINATED NORMALLY****
TOTAL RUN TIME: 0 days 22 hours 23 minutes 37 seconds 75 msec
