
                                 *****************
                                 * O   R   C   A *
                                 *****************

                                            #,                                       
                                            ###                                      
                                            ####                                     
                                            #####                                    
                                            ######                                   
                                           ########,                                 
                                     ,,################,,,,,                         
                               ,,#################################,,                 
                          ,,##########################################,,             
                       ,#########################################, ''#####,          
                    ,#############################################,,   '####,        
                  ,##################################################,,,,####,       
                ,###########''''           ''''###############################       
              ,#####''   ,,,,##########,,,,          '''####'''          '####       
            ,##' ,,,,###########################,,,                        '##       
           ' ,,###''''                  '''############,,,                           
         ,,##''                                '''############,,,,        ,,,,,,###''
      ,#''                                            '''#######################'''  
     '                                                          ''''####''''         
             ,#######,   #######,   ,#######,      ##                                
            ,#'     '#,  ##    ##  ,#'     '#,    #''#        ,####,    ,#,          
            ##       ##  ##   ,#'  ##            #'  '#       #'       ,# #          
            ##       ##  #######   ##           ,######,      #####,      #          
            '#,     ,#'  ##    ##  '#,     ,#' ,#      #,     #,   #      #          
             '#######'   ##     ##  '#######'  #'      '#     '####' #    #          



                #########################################################
                #                        -***-                          #
                #          Department of theory and spectroscopy        #
                #                                                       #
                #                      Frank Neese                      #
                #                                                       #
                #     Directorship, Architecture, Infrastructure        #
                #                    SHARK, DRIVERS                     #
                #        Core code/Algorithms in most modules           #
                #                                                       #
                #        Max Planck Institute fuer Kohlenforschung      #
                #                Kaiser Wilhelm Platz 1                 #
                #                 D-45470 Muelheim/Ruhr                 #
                #                      Germany                          #
                #                                                       #
                #                  All rights reserved                  #
                #                        -***-                          #
                #########################################################


                         Program Version 6.1.1  -  RELEASE   -
                                (GIT: $487d211c$)
                          ($2025-11-21 10:33:24 +0100$)


 With contributions from (in alphabetic order):
[Max-Planck-Institut fuer Kohlenforschung]                               
  Daniel Aravena         : Magnetic Suceptibility                        
  Michael Atanasov       : Ab Initio Ligand Field Theory (pilot matlab implementation)
  Alexander A. Auer      : GIAO ZORA, VPT2 properties, NMR spectrum      
  Ute Becker             : All parallelization in ORCA, NUMFREQ, NUMCALC 
  Giovanni Bistoni       : ED, misc. LED, open-shell LED, HFLD           
  Dmytro Bykov           : pre 5.0 version of the SCF Hessian            
  Marcos Casanova-Páez   : Triplet and SCS-CIS(D). UHF-(DLPNO)-IP/EA/STEOM-CCSD. UHF-CVS-IP/STEOM-CCSD   
  Vijay G. Chilkuri      : MRCI spin determinant printing, contributions to CSF-ICE 
  Pauline Colinet        : FMM embedding                                 
  Dipayan Datta          : RHF DLPNO-CCSD density                        
  Achintya Kumar Dutta   : EOM-CC, STEOM-CC                              
  Nicolas Foglia         : Exact transition moments, OPA infrastructure, MCD improvements    
  Dmitry Ganyushin       : Spin-Orbit,Spin-Spin,Magnetic field MRCI      
  Miquel Garcia-Rates    : C-PCM and meta-GGA Hessian, CCSD/C-PCM, Gaussian charge scheme 
  Tiago L. C. Gouveia    : GS-ROHF, GS-ROCIS                             
  Yang Guo               : DLPNO-NEVPT2, F12-NEVPT2, CIM, IAO-localization        
  Andreas Hansen         : Spin unrestricted coupled pair/coupled cluster methods 
  Ingolf Harden          : AUTO-CI MPn and infrastructure                
  Benjamin Helmich-Paris : MC-RPA, TRAH-(SCF,CASSCF), AVAS, COSX integrals, SCF dyn. polar., MC-PDFT, srDFT 
  Lee Huntington         : MR-EOM, pCC                                   
  Robert Izsak           : Overlap fitted RIJCOSX, COSX-SCS-MP3, EOM     
  Riya Kayal             : Wick's Theorem for AUTO-CI, AUTO-CI UHF-CCSDT 
  Emily Kempfer          : AUTO-CI RHF CISDT and CCSDT, approximate NEVPT4
  Christian Kollmar      : KDIIS, OOCD, Brueckner-CCSD(T), CCSD density, CASPT2, CASPT2-K, improved NEVPT2 
  Axel Koslowski         : Symmetry handling                             
  Simone Kossmann        : meta-GGA functionals, TD-DFT gradient, OOMP2, (MP2 Hessian; deprecated post 5.0) 
  Lucas Lang             : DCDCAS, Hyperfine gauge corrections, ICE-SOC+SSC
  Marvin Lechner         : AUTO-CI (C++ implementation), FIC-MRCC        
  Spencer Leger          : CASSCF response                               
  Dagmar Lenk            : GEPOL surface, SMD, ORCA-2-JSON               
  Dimitrios Liakos       : Extrapolation schemes; Compound Job, Property file
  Dimitrios Manganas     : Further ROCIS development; embedding schemes. LFT, Crystal Embedding 
  Dimitrios Pantazis     : SARC Basis sets                               
  Anastasios Papadopoulos: AUTO-CI, single reference methods and gradients 
  Taras Petrenko         : pre 6.0 DFT Hessian and TD-DFT gradient,  ECA, NRVS 
  Petra Pikulova         : Analytic Raman intensities                    
  Peter Pinski           : DLPNO-MP2, DLPNO-MP2 Gradient                 
  Shashank Vittal Rao    : ES-AILFT, MagRelax                            
  Christoph Reimann      : Effective Core Potentials                     
  Marius Retegan         : Local ZFS, SOC                                
  Christoph Riplinger    : Optimizer, TS searches, QM/MM, DLPNO-CCSD(T), (RO)-DLPNO pert. Triples 
  Michael Roemelt        : Original ROCIS implementation, recursive CI coupling coefficients
  Masaaki Saitow         : Open-shell DLPNO-CCSD energy and density      
  Barbara Sandhoefer     : DKH picture change effects                    
  Yorick L. A. Schmerwitz: GMF and freeze-and-release deltaSCF, NEB S-IDPP initial path                    
  Kantharuban Sivalingam : CASSCF convergence/infrastructure, NEVPT2, NEVPT3, NEVPT4(SD), FIC-MRCI and CEPA variants
  Bernardo de Souza      : ESD, SOC TD-DFT                               
  Georgi L. Stoychev     : AutoAux, RI-MP2 NMR, DLPNO-MP2 response, X2C  
  Van Anh Tran           : RI-MP2 g-tensors                              
  Willem Van den Heuvel  : Paramagnetic NMR                              
  Zikuan Wang            : NOTCH, Electric field optimization            
  Frank Wennmohs         : Technical directorship and infrastructure     
  Hang Xu                : AUTO-CI-Response properties                   
                                                                         
[FACCTs GmbH]                                                            
  Markus Bursch, Nicolas Foglia, Miquel Garcia-Rates, Ingolf Harden, Hagen Neugebauer, Anastasios Papadopoulos, 
  Christoph Riplinger, Bernardo de Souza, Georgi L. Stoychev                                                    
                                                                 
  APM, various basis sets, CI-OPT, improved COSX, DLPNO-Multilevel,           
  DOCKER, DRACO, updates on ESD, Fragmentator, GOAT, IRC, LR-CPCM, L-BFGS, MBIS, meta-GGA TD-DFT gradient, ML-optimized integration grids, 
  MM, NACMEs, nearIR, NEB, NEB-TS, NL-DFT gradient (VV10), 2- and 3-layer-ONIOM, interface openCOSMO-RS, QMMM,   
  Crystal-QMMM, RESP, rigid body optimization, SF, symmetry and pop. for TD-DFT, various functionals, SOLVATOR                                   
                                                                         
[Other institutions]                                                     
  V. Asgeirsson          : NEB                                           
  Christoph Bannwarth    : sTDA-DFT, sTD-DFT, PBEh-3c, B97-3c, D3        
  Giovanni Bistoni       : ETS/NOCV, ADLD/ADEX, COVALED                  
  Martin Brehm           : Molecular dynamics                            
  Ronald Cardenas        : ETS/NOCV                                      
  Martina Colucci        : COVALED                                       
  Sebastian Ehlert       : rSCAN, r2SCAN, r2SCAN-3c, D4, dhf basis sets  
  Marvin Friede          : D4 for Fr, Ra, Ac-Lr                          
  Lars Goerigk           : TD-DFT with DH, B97 family of functionals     
  Stefan Grimme          : VdW corrections, initial TS optimization, DFT functionals, gCP, sTDA/sTD-DF 
  Waldemar Hujo          : DFT-NL                                        
  H. Jonsson             : NEB                                           
  Holger Kruse           : gCP                                           
  Marcel Mueller         : wB97X-3c, vDZP basis set                      
  Hagen Neugebauer       : wr2SCAN, Native XTB                           
  Gianluca Regni         : ADLD/ADEX                                     
  Tobias Risthaus        : pre 6.0 range-separated hybrid DFT and stability analysis
  Lukas Wittmann         : regularized MP2, r2SCAN double-hybrids, wr2SCAN        
                                                                         
We gratefully acknowledge several colleagues who have allowed us to      
interface, adapt or use parts of their codes:                            
  Ed Valeev, F. Pavosevic, A. Kumar             : LibInt (2-el integral package), F12 methods 
  Garnet Chan, S. Sharma, J. Yang, R. Olivares  : DMRG                   
  Ulf Ekstrom                                   : XCFun DFT Library      
  Mihaly Kallay                                 : mrcc  (arbitrary order and MRCC methods)
  Frank Weinhold                                : gennbo (NPA and NBO analysis)           
  Simon Mueller                                 : openCOSMO-RS                            
  Christopher J. Cramer and Donald G. Truhlar   : smd solvation model                     
  S Lehtola, MJT Oliveira, MAL Marques          : LibXC Library                           
  Liviu Ungur et al                             : ANISO software                          


 Your calculation uses the libint2 library for the computation of 2-el integrals
 For citations please refer to: http://libint.valeyev.net

 Your ORCA version has been built with support for libXC version: 7.0.0
 For citations please refer to: https://libxc.gitlab.io

 This ORCA versions uses:
   CBLAS   interface :  Fast vector & matrix operations
   LAPACKE interface :  Fast linear algebra routines
   SCALAPACK package :  Parallel linear algebra routines
   Shared memory     :  Shared parallel matrices
   BLAS/LAPACK       :  OpenBLAS 0.3.29  USE64BITINT DYNAMIC_ARCH NO_AFFINITY Haswell SINGLE_THREADED
        Core in use  :  Haswell
   Copyright (c) 2011-2014, The OpenBLAS Project


  ***********************************
  * Starting time: Tue Aug  4 20:01:00 2026
  * Host name:     steezy
  * Process ID:    1450355
  * Working dir.:  /home/jannes/chlorophyll-ladder/011-chlorophyll-a-truncation/chlorophyll_a/02_tddft_ch2cl2/wb97xd
  ***********************************

NOTE: MaxCore=2200 MB was set to SCF,MP2,MDCI,CIPSI,MRCI,RASCI and CIS
      => If you want to overwrite this, your respective input block should be placed after the MaxCore statement


***************************************
The coordinates will be read from file: /home/jannes/chlorophyll-ladder/011-chlorophyll-a-truncation/chlorophyll_a/01_opt/chlorophyll_a_opt_b3lypd4_tzvp.xyz
***************************************


Your calculation utilizes the atom-pairwise dispersion correction
with the zero-damping scheme (D30)


XCFun DFT library Copyright 2009-2010 Ulf Ekstrom and contributors.
See http://admol.org/xcfun for more information.
This is free software; see the source code for copying conditions.
There is ABSOLUTELY NO WARRANTY; not even for MERCHANTABILITY or FITNESS FOR A PARTICULAR PURPOSE.
For details see the documentation.
Scientific users of this library should cite U. Ekstrom, L. Visscher, R. Bast, A. J. Thorvaldsen and K. Ruud;
J.Chem.Theor.Comp. 2010, DOI: 10.1021/ct100117s
XCFun Version 0.99 

================================================================================

----- Orbital basis set information -----
Your calculation utilizes the basis: def2-TZVP
   F. Weigend and R. Ahlrichs, Phys. Chem. Chem. Phys. 7, 3297 (2005).

----- AuxJ basis set information -----
Your calculation utilizes the auxiliary basis: def2/J
   H-Rn: F. Weigend, Phys. Chem. Chem. Phys. 8, 1057 (2006).
   Fr-Lr: K. Eichkorn, F. Weigend, O. Treutler, R. Ahlrichs; Theor. Chem. Acc. 97, 119 (1997).

================================================================================
                                        WARNINGS
                       Please study these warnings very carefully!
================================================================================


WARNING: CIS/ROCIS methods need fully converged wavefunctions
  ===> : Setting SCFConvForced true
         You can overwrite this default with %scf ConvForced false 


================================================================================
                                       INPUT FILE
================================================================================
NAME = tddft.inp
|  1> %pal nprocs 4 end
|  2> %maxcore 2200
|  3> ! wB97X-D3 def2-TZVP def2/J RIJCOSX DefGrid3 TightSCF CPCM(CH2Cl2)
|  4> %tddft
|  5>   nroots 30
|  6>   tda false
|  7>   triplets false
|  8> end
|  9> * xyzfile 0 1 /home/jannes/chlorophyll-ladder/011-chlorophyll-a-truncation/chlorophyll_a/01_opt/chlorophyll_a_opt_b3lypd4_tzvp.xyz
| 10> 
| 11>                          ****END OF INPUT****
================================================================================

                       ****************************
                       * Single Point Calculation *
                       ****************************

---------------------------------
CARTESIAN COORDINATES (ANGSTROEM)
---------------------------------
  Mg     6.479325   -0.856669   -0.022650
  C      4.824863    1.926725   -1.189190
  C      3.967350   -1.366492    2.202749
  C      8.090452   -3.624777    1.054701
  C      9.073893   -0.194301   -2.228311
  N      4.645023    0.146951    0.413537
  C      4.144979    1.264153   -0.200884
  C      2.779482    1.623969    0.337808
  C      2.687618    0.748333    1.605681
  C      3.820053   -0.243921    1.407761
  C      2.873454    1.552508    2.896797
  C      1.677792    1.333722   -0.691271
  C      0.306476    1.810696   -0.228119
  C     -0.769972    1.581641   -1.264377
  O     -0.573019    1.401751   -2.440156
  O     -1.993543    1.617502   -0.708764
  N      6.084936   -2.259084    1.368503
  C      5.000951   -2.314628    2.185715
  C      5.080945   -3.478347    3.040170
  C      6.254803   -4.120714    2.718156
  C      6.877407   -3.343460    1.658588
  C      4.047146   -3.889520    4.032602
  C      6.814799   -5.345299    3.260172
  C      6.601048   -5.861764    4.473553
  N      8.263879   -1.751213   -0.508417
  C      8.744574   -2.893584    0.050367
  C     10.021398   -3.234476   -0.531017
  C     10.302273   -2.260841   -1.454599
  C      9.190811   -1.336347   -1.433566
  C     10.839407   -4.431219   -0.173262
  C     11.485972   -2.175745   -2.364258
  C     11.239280   -2.841239   -3.725492
  N      6.899588    0.527206   -1.412075
  C      8.008028    0.699564   -2.234592
  C      7.850223    1.892237   -3.035077
  C      6.619003    2.411007   -2.660494
  C      6.084962    1.545039   -1.675539
  C      8.815929    2.431750   -4.032965
  C      5.678985    3.497729   -2.885831
  O      5.745774    4.461750   -3.609447
  C      4.431100    3.184148   -1.942329
  C      4.160810    4.382677   -1.063901
  O      4.666584    4.584571    0.011802
  O      3.293205    5.221456   -1.651794
  C      3.058682    6.460634   -0.966528
  C     -3.113386    1.451284   -1.623782
  C     -4.362005    1.431486   -0.816231
  C     -5.252522    0.439033   -0.742085
  C     -5.122232   -0.876908   -1.459134
  C     -6.497245    0.598310    0.093188
  C     -7.796788    0.622560   -0.723564
  C     -9.034096    0.770893    0.159777
  C    -10.375291    0.724638   -0.585861
  C    -10.541501    1.919308   -1.528846
  C    -11.531336    0.621411    0.418833
  C    -12.909310    0.375287   -0.193858
  C    -13.991724    0.167605    0.864332
  C    -15.385285   -0.175833    0.319462
  C    -15.969237    0.968854   -0.512490
  C    -16.316509   -0.573723    1.473367
  C    -17.675796   -1.131403    1.053752
  C    -18.502427   -1.617095    2.243453
  C    -19.923295   -2.085978    1.904308
  C    -19.929498   -3.294126    0.964709
  C    -20.704004   -2.397334    3.182676
  H      3.190515   -1.521317    2.939485
  H      8.607171   -4.507497    1.404701
  H      9.891945    0.014024   -2.905384
  H      2.748165    2.684594    0.599789
  H      1.733111    0.219047    1.655257
  H      2.062261    2.273792    3.017986
  H      2.883328    0.900103    3.771261
  H      3.815653    2.103920    2.874006
  H      1.913775    1.814778   -1.639835
  H      1.648464    0.259798   -0.896643
  H     -0.003903    1.336742    0.704449
  H      0.330300    2.887549   -0.025835
  H      3.058327   -3.526022    3.751709
  H      3.996583   -4.976686    4.111851
  H      4.264312   -3.502080    5.033330
  H      7.484895   -5.885268    2.598214
  H      7.069801   -6.791697    4.767681
  H      5.984543   -5.373487    5.215213
  H     10.347404   -5.360236   -0.476157
  H     11.813753   -4.405867   -0.660908
  H     11.011159   -4.494374    0.904323
  H     11.762268   -1.129283   -2.517881
  H     12.348967   -2.644684   -1.885420
  H     12.117450   -2.754751   -4.369153
  H     11.010005   -3.901451   -3.602441
  H     10.393547   -2.378779   -4.237777
  H      9.046517    1.692599   -4.804780
  H      8.408763    3.317443   -4.517755
  H      9.762030    2.708615   -3.559300
  H      3.575461    3.043390   -2.605848
  H      2.644615    6.277495    0.024917
  H      3.988817    7.019046   -0.866671
  H      2.350264    7.005887   -1.584013
  H     -3.098953    2.293165   -2.320868
  H     -2.956563    0.545577   -2.204288
  H     -4.551145    2.336338   -0.245550
  H     -5.365305   -1.699154   -0.780373
  H     -5.824891   -0.942756   -2.294440
  H     -4.124269   -1.051942   -1.855134
  H     -6.550710   -0.229670    0.811016
  H     -6.427548    1.518531    0.678869
  H     -7.737859    1.442187   -1.444423
  H     -7.887166   -0.298839   -1.307267
  H     -9.023506   -0.030802    0.906579
  H     -8.970541    1.710227    0.722975
  H    -10.383921   -0.190715   -1.193364
  H     -9.727231    1.978854   -2.251927
  H    -11.471821    1.859981   -2.094507
  H    -10.554337    2.855782   -0.962340
  H    -11.309579   -0.193066    1.117345
  H    -11.561704    1.537014    1.022768
  H    -13.180529    1.212765   -0.839680
  H    -12.863352   -0.509414   -0.840706
  H    -13.673828   -0.638839    1.534600
  H    -14.066240    1.066786    1.488662
  H    -15.277549   -1.051461   -0.335040
  H    -16.089775    1.865908    0.103209
  H    -15.325326    1.227446   -1.353899
  H    -16.946989    0.712178   -0.921565
  H    -15.806139   -1.325840    2.085383
  H    -16.465885    0.295441    2.126078
  H    -18.246763   -0.368448    0.515482
  H    -17.517605   -1.952001    0.346725
  H    -17.970725   -2.434459    2.747015
  H    -18.570278   -0.805635    2.976887
  H    -20.431609   -1.258631    1.392579
  H    -19.395621   -4.136477    1.415694
  H    -20.950711   -3.622167    0.757624
  H    -19.454561   -3.072425    0.007986
  H    -20.739492   -1.531625    3.848253
  H    -21.731896   -2.691756    2.958809
  H    -20.235584   -3.219747    3.731699

----------------------------
CARTESIAN COORDINATES (A.U.)
----------------------------
  NO LB      ZA    FRAG     MASS         X           Y           Z
   0 Mg   12.0000    0    24.305   12.244150   -1.618869   -0.042803
   1 C     6.0000    0    12.011    9.117669    3.640983   -2.247243
   2 C     6.0000    0    12.011    7.497204   -2.582295    4.162593
   3 C     6.0000    0    12.011   15.288738   -6.849835    1.993097
   4 C     6.0000    0    12.011   17.147172   -0.367176   -4.210897
   5 N     7.0000    0    14.007    8.777822    0.277697    0.781471
   6 C     6.0000    0    12.011    7.832875    2.388903   -0.379616
   7 C     6.0000    0    12.011    5.252461    3.068858    0.638365
   8 C     6.0000    0    12.011    5.078862    1.414145    3.034297
   9 C     6.0000    0    12.011    7.218854   -0.460944    2.660282
  10 C     6.0000    0    12.011    5.430041    2.933815    5.474153
  11 C     6.0000    0    12.011    3.170567    2.520369   -1.306312
  12 C     6.0000    0    12.011    0.579156    3.421719   -0.431082
  13 C     6.0000    0    12.011   -1.455036    2.988869   -2.389325
  14 O     8.0000    0    15.999   -1.082848    2.648926   -4.611227
  15 O     8.0000    0    15.999   -3.767251    3.056636   -1.339370
  16 N     7.0000    0    14.007   11.498863   -4.269049    2.586097
  17 C     6.0000    0    12.011    9.450427   -4.374014    4.130402
  18 C     6.0000    0    12.011    9.601594   -6.573122    5.745089
  19 C     6.0000    0    12.011   11.819864   -7.787021    5.136570
  20 C     6.0000    0    12.011   12.996415   -6.318224    3.134277
  21 C     6.0000    0    12.011    7.647997   -7.350127    7.620513
  22 C     6.0000    0    12.011   12.878104  -10.101152    6.160832
  23 C     6.0000    0    12.011   12.474174  -11.077129    8.453789
  24 N     7.0000    0    14.007   15.616467   -3.309313   -0.960768
  25 C     6.0000    0    12.011   16.524849   -5.468082    0.095180
  26 C     6.0000    0    12.011   18.937698   -6.112274   -1.003476
  27 C     6.0000    0    12.011   19.468475   -4.272369   -2.748794
  28 C     6.0000    0    12.011   17.368116   -2.525330   -2.709047
  29 C     6.0000    0    12.011   20.483510   -8.373791   -0.327418
  30 C     6.0000    0    12.011   21.705342   -4.111562   -4.467801
  31 C     6.0000    0    12.011   21.239160   -5.369163   -7.040160
  32 N     7.0000    0    14.007   13.038331    0.996275   -2.668435
  33 C     6.0000    0    12.011   15.132980    1.321984   -4.222767
  34 C     6.0000    0    12.011   14.834772    3.575810   -5.735464
  35 C     6.0000    0    12.011   12.508103    4.556144   -5.027605
  36 C     6.0000    0    12.011   11.498912    2.919701   -3.166309
  37 C     6.0000    0    12.011   16.659691    4.595341   -7.621199
  38 C     6.0000    0    12.011   10.731727    6.609750   -5.453431
  39 O     8.0000    0    15.999   10.857938    8.431486   -6.820866
  40 C     6.0000    0    12.011    8.373566    6.017167   -3.670469
  41 C     6.0000    0    12.011    7.862792    8.282060   -2.010482
  42 O     8.0000    0    15.999    8.818566    8.663584    0.022303
  43 O     8.0000    0    15.999    6.223255    9.867122   -3.121439
  44 C     6.0000    0    12.011    5.780071   12.208830   -1.826473
  45 C     6.0000    0    12.011   -5.883447    2.742529   -3.068504
  46 C     6.0000    0    12.011   -8.242995    2.705116   -1.542453
  47 C     6.0000    0    12.011   -9.925828    0.829652   -1.402337
  48 C     6.0000    0    12.011   -9.679615   -1.657115   -2.757363
  49 C     6.0000    0    12.011  -12.278014    1.130642    0.176100
  50 C     6.0000    0    12.011  -14.733793    1.176469   -1.367338
  51 C     6.0000    0    12.011  -17.071967    1.456776    0.301934
  52 C     6.0000    0    12.011  -19.606458    1.369367   -1.107117
  53 C     6.0000    0    12.011  -19.920549    3.626967   -2.889100
  54 C     6.0000    0    12.011  -21.791068    1.174296    0.791479
  55 C     6.0000    0    12.011  -24.395060    0.709190   -0.366339
  56 C     6.0000    0    12.011  -26.440526    0.316728    1.633351
  57 C     6.0000    0    12.011  -29.073976   -0.332276    0.603695
  58 C     6.0000    0    12.011  -30.177484    1.830869   -0.968466
  59 C     6.0000    0    12.011  -30.833733   -1.084180    2.784260
  60 C     6.0000    0    12.011  -33.402414   -2.138041    1.991302
  61 C     6.0000    0    12.011  -34.964519   -3.055867    4.239511
  62 C     6.0000    0    12.011  -37.649571   -3.941927    3.598621
  63 C     6.0000    0    12.011  -37.661293   -6.224995    1.823035
  64 C     6.0000    0    12.011  -39.124897   -4.530305    6.014386
  65 H     1.0000    0     1.008    6.029200   -2.874872    5.554822
  66 H     1.0000    0     1.008   16.265196   -8.517935    2.654501
  67 H     1.0000    0     1.008   18.693067    0.026501   -5.490380
  68 H     1.0000    0     1.008    5.193278    5.073147    1.133438
  69 H     1.0000    0     1.008    3.275105    0.413939    3.127982
  70 H     1.0000    0     1.008    3.897109    4.296844    5.703167
  71 H     1.0000    0     1.008    5.448700    1.700949    7.126651
  72 H     1.0000    0     1.008    7.210540    3.975833    5.431084
  73 H     1.0000    0     1.008    3.616510    3.429433   -3.098840
  74 H     1.0000    0     1.008    3.115145    0.490947   -1.694410
  75 H     1.0000    0     1.008   -0.007376    2.526076    1.331217
  76 H     1.0000    0     1.008    0.624176    5.456676   -0.048821
  77 H     1.0000    0     1.008    5.779400   -6.663215    7.089702
  78 H     1.0000    0     1.008    7.552448   -9.404573    7.770273
  79 H     1.0000    0     1.008    8.058383   -6.617973    9.511615
  80 H     1.0000    0     1.008   14.144402  -11.121544    4.909912
  81 H     1.0000    0     1.008   13.359987  -12.834447    9.009612
  82 H     1.0000    0     1.008   11.309148  -10.154420    9.855325
  83 H     1.0000    0     1.008   19.553759  -10.129378   -0.899807
  84 H     1.0000    0     1.008   22.324758   -8.325883   -1.248936
  85 H     1.0000    0     1.008   20.808074   -8.493136    1.708924
  86 H     1.0000    0     1.008   22.227464   -2.134035   -4.758106
  87 H     1.0000    0     1.008   23.336165   -4.997728   -3.562927
  88 H     1.0000    0     1.008   22.898661   -5.205725   -8.256502
  89 H     1.0000    0     1.008   20.805894   -7.372674   -6.807627
  90 H     1.0000    0     1.008   19.640957   -4.495241   -8.008238
  91 H     1.0000    0     1.008   17.095439    3.198548   -9.079718
  92 H     1.0000    0     1.008   15.890260    6.269060   -8.537319
  93 H     1.0000    0     1.008   18.447564    5.118540   -6.726102
  94 H     1.0000    0     1.008    6.756642    5.751174   -4.924338
  95 H     1.0000    0     1.008    4.997597   11.862746    0.047086
  96 H     1.0000    0     1.008    7.537771   13.264075   -1.637771
  97 H     1.0000    0     1.008    4.441355   13.239207   -2.993351
  98 H     1.0000    0     1.008   -5.856172    4.333454   -4.385805
  99 H     1.0000    0     1.008   -5.587094    1.030991   -4.165501
 100 H     1.0000    0     1.008   -8.600417    4.415039   -0.464021
 101 H     1.0000    0     1.008  -10.138957   -3.210935   -1.474691
 102 H     1.0000    0     1.008  -11.007449   -1.781551   -4.335864
 103 H     1.0000    0     1.008   -7.793738   -1.987882   -3.505696
 104 H     1.0000    0     1.008  -12.379049   -0.434014    1.532598
 105 H     1.0000    0     1.008  -12.146305    2.869607    1.282877
 106 H     1.0000    0     1.008  -14.622434    2.725339   -2.729564
 107 H     1.0000    0     1.008  -14.904583   -0.564724   -2.470377
 108 H     1.0000    0     1.008  -17.051954   -0.058208    1.713187
 109 H     1.0000    0     1.008  -16.951865    3.231861    1.366225
 110 H     1.0000    0     1.008  -19.622766   -0.360399   -2.255131
 111 H     1.0000    0     1.008  -18.381802    3.739491   -4.255525
 112 H     1.0000    0     1.008  -21.678599    3.514854   -3.958045
 113 H     1.0000    0     1.008  -19.944806    5.396646   -1.818560
 114 H     1.0000    0     1.008  -21.372008   -0.364841    2.111477
 115 H     1.0000    0     1.008  -21.848454    2.904536    1.932752
 116 H     1.0000    0     1.008  -24.907590    2.291794   -1.586766
 117 H     1.0000    0     1.008  -24.308212   -0.962653   -1.588704
 118 H     1.0000    0     1.008  -25.839790   -1.207231    2.899973
 119 H     1.0000    0     1.008  -26.581341    2.015933    2.813163
 120 H     1.0000    0     1.008  -28.870383   -1.986973   -0.633133
 121 H     1.0000    0     1.008  -30.405269    3.526055    0.195036
 122 H     1.0000    0     1.008  -28.960670    2.319536   -2.558499
 123 H     1.0000    0     1.008  -32.025168    1.345821   -1.741506
 124 H     1.0000    0     1.008  -29.869274   -2.505475    3.940802
 125 H     1.0000    0     1.008  -31.116014    0.558302    4.017705
 126 H     1.0000    0     1.008  -34.481386   -0.696266    0.974119
 127 H     1.0000    0     1.008  -33.103476   -3.688748    0.655216
 128 H     1.0000    0     1.008  -33.959749   -4.600460    5.191106
 129 H     1.0000    0     1.008  -35.092740   -1.522429    5.625502
 130 H     1.0000    0     1.008  -38.610145   -2.378468    2.631593
 131 H     1.0000    0     1.008  -36.652413   -7.816809    2.675273
 132 H     1.0000    0     1.008  -39.591106   -6.844903    1.431702
 133 H     1.0000    0     1.008  -36.763792   -5.806042    0.015092
 134 H     1.0000    0     1.008  -39.191961   -2.894351    7.272145
 135 H     1.0000    0     1.008  -41.067332   -5.086682    5.591338
 136 H     1.0000    0     1.008  -38.239712   -6.084441    7.051889

--------------------------------
INTERNAL COORDINATES (ANGSTROEM)
--------------------------------
 Mg     0   0   0     0.000000000000     0.00000000     0.00000000
 C      1   0   0     3.441706040795     0.00000000     0.00000000
 C      1   2   0     3.394457668888    89.30889667     0.00000000
 C      1   2   3     3.379177049487   178.68175990   112.27289249
 C      1   2   3     3.469214613735    89.40493490   182.29922912
 N      1   2   3     2.135924835471    43.64663978     0.72297241
 C      6   1   2     1.369561443797   127.24560283     1.16512150
 C      7   6   1     1.511369369791   111.35686998   176.67956037
 C      8   7   6     1.543592769906   102.20898485    13.11530211
 C      6   1   2     1.349754485386   122.63215241   183.37318882
 C      9   8   7     1.532388190848   112.77664995   105.03734026
 C      8   7   6     1.535242429099   111.37164823   251.45860928
 C     12   8   7     1.523982230910   112.50920958   185.52321196
 C     13  12   8     1.511633612473   112.64445898   177.46814922
 O     14  13  12     1.205657098788   125.08662567   340.38500786
 O     14  13  12     1.344291055565   111.14830867   161.04362100
 N      1   2   3     2.014353277146   134.66866264     1.99036412
 C     17   1   2     1.358654949213   126.87482816   357.69144692
 C     18  17   1     1.445936755180   110.13316003   179.72837459
 C     19  18  17     1.376325521682   106.53231770     0.37739225
 C     17   1   2     1.374056403486   125.61365444   177.59506666
 C     19  18  17     1.490880187271   125.23758309   182.18112390
 C     20  19  18     1.451546231965   129.45157536   180.80476837
 C     23  20  19     1.335933264052   127.12610259   333.72833071
 N      1   2   3     2.054461113194   133.59421682   180.89498556
 C     25   1   2     1.359529079887   125.15624580   181.97463487
 C     26  25   1     1.443777996460   110.21707011   179.85213705
 C     27  26  25     1.371080601320   106.54412342     0.26046554
 C     25   1   2     1.373760941850   127.86735246     1.97620977
 C     27  26  25     1.493090831842   125.25889970   180.66305093
 C     28  27  26     1.495280324903   127.76173296   182.26827086
 C     31  28  27     1.535153770543   112.80223231    91.51067135
 N      1   2   3     2.005550035663    46.20171862   182.09124075
 C     33   1   2     1.391000182885   131.46322253   178.53647119
 C     34  33   1     1.445042403301   110.04801695   182.27813617
 C     35  34  33     1.387565357793   104.82885546   359.88862450
 C     33   1   2     1.330042104720   122.47532434     0.94304293
 C     35  34  33     1.489778941651   126.80960458   179.58057088
 C     36  35  34     1.454432847022   144.19495672   179.56518189
 O     39  36  35     1.207235199980   130.82562105   358.58789359
 C      2   1   3     1.517688754903   164.35575665   177.50215655
 C     41   2   1     1.510352210713   114.53659303   237.78801913
 O     42  41   2     1.205696981445   125.21920743    28.62695551
 O     42  41   2     1.342351819838   110.90379824   207.38963558
 C     44  42  41     1.435323425278   115.84767491   185.77235653
 C     16  14  13     1.455656177894   115.93602451   178.09424862
 C     46  16  14     1.487138224139   107.82408391   176.39128295
 C     47  46  16     1.335469914406   126.86357787   240.13166419
 C     48  47  46     1.504271866507   124.46393816     1.53589320
 C     48  47  46     1.507443692477   120.18853641   182.08211459
 C     50  48  47     1.535083602003   113.94616119   113.82673898
 C     51  50  48     1.527489747424   112.30801206   179.41735962
 C     52  51  50     1.535225844420   115.07823818   183.22502876
 C     53  52  51     1.531039827228   111.74457360   294.54639931
 C     53  52  51     1.535091596965   110.00198802   169.55329475
 C     55  53  52     1.527998016085   115.31140995   188.00077823
 C     56  55  53     1.527912952873   112.52332946   175.22595773
 C     57  56  55     1.535202868777   115.31959895   183.81369614
 C     58  57  56     1.530833790524   111.83105398   295.92296269
 C     58  57  56     1.535249455416   109.98772544   171.11282683
 C     60  58  57     1.527987534656   115.32662168   188.36114646
 C     61  60  58     1.527940721061   112.54865178   175.09142631
 C     62  61  60     1.534189181039   115.21877166   175.32659430
 C     63  62  61     1.530525094603   112.37773016    62.43618717
 C     63  62  61     1.529925696594   110.49264646   186.37032651
 H      3   1   2     1.081768203352   178.03369337   246.95217603
 H      4   1  33     1.081061552948   179.67226140   109.10243791
 H      5   1   2     1.082144705435   179.25352134   117.53697296
 H      8   7   6     1.092949382779   110.02050629   130.63440572
 H      9   8   7     1.092559231141   111.35078720   227.65559267
 H     11   9   8     1.092231799297   110.48570164    64.28463475
 H     11   9   8     1.091062415020   111.25922898   184.51660560
 H     11   9   8     1.091931483368   110.61375920   304.69831410
 H     12   8   7     1.089439052268   110.16398147   307.03693870
 H     12   8   7     1.093778005785   109.31283122    63.14696688
 H     13  12   8     1.091169615291   112.31783307   300.36521265
 H     13  12   8     1.095946293867   110.12438865    58.22254394
 H     22  19  18     1.090318771361   111.43379415    26.30205799
 H     22  19  18     1.091222824261   110.80820574   146.57513737
 H     22  19  18     1.094864437862   111.91932658   266.14699076
 H     23  20  19     1.085717523549   115.46876553   154.25467552
 H     24  23  20     1.082135009911   120.64931197   179.51173494
 H     24  23  20     1.080996271574   122.66867946   357.82047717
 H     30  27  26     1.094022112369   111.58670526    66.88218537
 H     30  27  26     1.089859196202   111.34243960   186.78889270
 H     30  27  26     1.093013379468   111.63089619   307.03601772
 H     31  28  27     1.093170603854   109.87990608   213.77447853
 H     31  28  27     1.092680173599   109.52404781   329.62305820
 H     32  31  28     1.092227748472   111.03983592   179.49665320
 H     32  31  28     1.091676704330   110.78182354   299.74471277
 H     32  31  28     1.091589792214   110.91481554    59.11175549
 H     38  35  34     1.093258028841   111.39260199    56.76947194
 H     38  35  34     1.088695886091   110.51508040   177.25242932
 H     38  35  34     1.093673054236   111.24366744   297.32442143
 H     41   2   1     1.091873915343   113.45746400   112.60821853
 H     45  44  42     1.089933170437   110.56657729   299.19395487
 H     45  44  42     1.089470081645   110.29001910    59.93697327
 H     45  44  42     1.086482723818   105.57310553   179.41657570
 H     46  16  14     1.093115037183   107.62327232   296.87668026
 H     46  16  14     1.087145972860   108.65137100    52.88918616
 H     47  46  16     1.086374065722   114.85632311    60.90451933
 H     49  48  47     1.093567218463   110.03786682   134.98372840
 H     49  48  47     1.093528000528   111.17010710   252.87050003
 H     49  48  47     1.087834694435   113.18723214    14.06021615
 H     50  48  47     1.097126796743   108.84654230   235.16917089
 H     50  48  47     1.093016894838   109.46381553   351.48176087
 H     51  50  48     1.093114422312   108.48613637   302.00526767
 H     51  50  48     1.094465335836   109.89914245    58.07575953
 H     52  51  50     1.095692216140   108.37733942   304.87809236
 H     52  51  50     1.097078674144   109.45671986    60.08109449
 H     53  52  51     1.098637861798   107.48942116    52.84898143
 H     54  53  52     1.090608876419   111.70967107    57.08510038
 H     54  53  52     1.090407370954   111.69577010   177.17336907
 H     54  53  52     1.094566644565   110.49338561   297.11876573
 H     55  53  52     1.095658562815   108.34990725   309.86932652
 H     55  53  52     1.097265044317   108.96307873    64.72478856
 H     56  55  53     1.091794636498   109.73417016   297.73589370
 H     56  55  53     1.096913744516   109.18287149    53.84271799
 H     57  56  55     1.095750304412   108.55144520   305.63648243
 H     57  56  55     1.097208356789   109.31761477    60.77270626
 H     58  57  56     1.098500218252   107.50312798    54.35411304
 H     59  58  57     1.094678352166   110.43194757   298.33047336
 H     59  58  57     1.090623405738   111.79940661    58.27252283
 H     59  58  57     1.090515402222   111.70819168   178.41048480
 H     60  58  57     1.095774012612   108.37083783   310.16084563
 H     60  58  57     1.097173987975   108.92946885    65.00155316
 H     61  60  58     1.094457998821   110.16503112   296.70845958
 H     61  60  58     1.094665633427   108.80902643    52.84696571
 H     62  61  60     1.097435554605   109.38484606   298.25766262
 H     62  61  60     1.095900648595   108.61617800    53.43777342
 H     63  62  61     1.097612540539   107.55338088   303.85862343
 H     64  63  62     1.094516853070   110.64487396    59.29474490
 H     64  63  62     1.092415493238   110.92854484   178.68358653
 H     64  63  62     1.090886604273   112.09956099   298.94774306
 H     65  63  62     1.092568370600   111.36705533    57.06330813
 H     65  63  62     1.092411933628   111.33184149   177.57061750
 H     65  63  62     1.094169259873   110.71834319   297.27783005

---------------------------
INTERNAL COORDINATES (A.U.)
---------------------------
 Mg     0   0   0     0.000000000000     0.00000000     0.00000000
 C      1   0   0     6.503881850565     0.00000000     0.00000000
 C      1   2   0     6.414595367388    89.30889667     0.00000000
 C      1   2   3     6.385719181563   178.68175990   112.27289249
 C      1   2   3     6.555865519757    89.40493490   182.29922912
 N      1   2   3     4.036312981681    43.64663978     0.72297241
 C      6   1   2     2.588096052353   127.24560283     1.16512150
 C      7   6   1     2.856074196101   111.35686998   176.67956037
 C      8   7   6     2.916967597424   102.20898485    13.11530211
 C      6   1   2     2.550666325412   122.63215241   183.37318882
 C      9   8   7     2.895794011557   112.77664995   105.03734026
 C      8   7   6     2.901187740173   111.37164823   251.45860928
 C     12   8   7     2.879909049382   112.50920958   185.52321196
 C     13  12   8     2.856573542404   112.64445898   177.46814922
 O     14  13  12     2.278361728128   125.08662567   340.38500786
 O     14  13  12     2.540341939297   111.14830867   161.04362100
 N      1   2   3     3.806576030773   134.66866264     1.99036412
 C     17   1   2     2.567485764510   126.87482816   357.69144692
 C     18  17   1     2.732424474260   110.13316003   179.72837459
 C     19  18  17     2.600878307106   106.53231770     0.37739225
 C     17   1   2     2.596590295149   125.61365444   177.59506666
 C     19  18  17     2.817355252431   125.23758309   182.18112390
 C     20  19  18     2.743024849138   129.45157536   180.80476837
 C     23  20  19     2.524548002254   127.12610259   333.72833071
 N      1   2   3     3.882368856727   133.59421682   180.89498556
 C     25   1   2     2.569137632088   125.15624580   181.97463487
 C     26  25   1     2.728345011491   110.21707011   179.85213705
 C     27  26  25     2.590966844026   106.54412342     0.26046554
 C     25   1   2     2.596031953574   127.86735246     1.97620977
 C     27  26  25     2.821532765249   125.25889970   180.66305093
 C     28  27  26     2.825670307508   127.76173296   182.26827086
 C     31  28  27     2.901020199782   112.80223231    91.51067135
 N      1   2   3     3.789940315278    46.20171862   182.09124075
 C     33   1   2     2.628609397886   131.46322253   178.53647119
 C     34  33   1     2.730734394142   110.04801695   182.27813617
 C     35  34  33     2.622118519145   104.82885546   359.88862450
 C     33   1   2     2.513415324504   122.47532434     0.94304293
 C     35  34  33     2.815274199803   126.80960458   179.58057088
 C     36  35  34     2.748479761051   144.19495672   179.56518189
 O     39  36  35     2.281343907192   130.82562105   358.58789359
 C      2   1   3     2.868016103299   164.35575665   177.50215655
 C     41   2   1     2.854152044011   114.53659303   237.78801913
 O     42  41   2     2.278437095426   125.21920743    28.62695551
 O     42  41   2     2.536677314864   110.90379824   207.38963558
 C     44  42  41     2.712368187377   115.84767491   185.77235653
 C     16  14  13     2.750791521371   115.93602451   178.09424862
 C     46  16  14     2.810283966908   107.82408391   176.39128295
 C     47  46  16     2.523672398318   126.86357787   240.13166419
 C     48  47  46     2.842661858662   124.46393816     1.53589320
 C     48  47  46     2.848655741088   120.18853641   182.08211459
 C     50  48  47     2.900887600459   113.94616119   113.82673898
 C     51  50  48     2.886537295005   112.30801206   179.41735962
 C     52  51  50     2.901156399672   115.07823818   183.22502876
 C     53  52  51     2.893245973588   111.74457360   294.54639931
 C     53  52  51     2.900902708747   110.00198802   169.55329475
 C     55  53  52     2.887497783577   115.31140995   188.00077823
 C     56  55  53     2.887337037401   112.52332946   175.22595773
 C     57  56  55     2.901112981998   115.31959895   183.81369614
 C     58  57  56     2.892856620643   111.83105398   295.92296269
 C     58  57  56     2.901201017988   109.98772544   171.11282683
 C     60  58  57     2.887477976544   115.32662168   188.36114646
 C     61  60  58     2.887389511672   112.54865178   175.09142631
 C     62  61  60     2.899197389790   115.21877166   175.32659430
 C     63  62  61     2.892273269893   112.37773016    62.43618717
 C     63  62  61     2.891140571812   110.49264646   186.37032651
 H      3   1   2     2.044245644720   178.03369337   246.95217603
 H      4   1  33     2.042910268983   179.67226140   109.10243791
 H      5   1   2     2.044957130545   179.25352134   117.53697296
 H      8   7   6     2.065375011691   110.02050629   130.63440572
 H      9   8   7     2.064637731945   111.35078720   227.65559267
 H     11   9   8     2.064018975432   110.48570164    64.28463475
 H     11   9   8     2.061809159403   111.25922898   184.51660560
 H     11   9   8     2.063451460571   110.61375920   304.69831410
 H     12   8   7     2.058741448386   110.16398147   307.03693870
 H     12   8   7     2.066940882240   109.31283122    63.14696688
 H     13  12   8     2.062011738556   112.31783307   300.36521265
 H     13  12   8     2.071038352894   110.12438865    58.22254394
 H     22  19  18     2.060403876546   111.43379415    26.30205799
 H     22  19  18     2.062112288937   110.80820574   146.57513737
 H     22  19  18     2.068993941328   111.91932658   266.14699076
 H     23  20  19     2.051708778307   115.46876553   154.25467552
 H     24  23  20     2.044938808660   120.64931197   179.51173494
 H     24  23  20     2.042786905064   122.66867946   357.82047717
 H     30  27  26     2.067402176831   111.58670526    66.88218537
 H     30  27  26     2.059535405358   111.34243960   186.78889270
 H     30  27  26     2.065495947906   111.63089619   307.03601772
 H     31  28  27     2.065793058937   109.87990608   213.77447853
 H     31  28  27     2.064866280067   109.52404781   329.62305820
 H     32  31  28     2.064011320482   111.03983592   179.49665320
 H     32  31  28     2.062969997966   110.78182354   299.74471277
 H     32  31  28     2.062805757869   110.91481554    59.11175549
 H     38  35  34     2.065958268220   111.39260199    56.76947194
 H     38  35  34     2.057337067839   110.51508040   177.25242932
 H     38  35  34     2.066742552556   111.24366744   297.32442143
 H     41   2   1     2.063342672771   113.45746400   112.60821853
 H     45  44  42     2.059675196402   110.56657729   299.19395487
 H     45  44  42     2.058800085410   110.29001910    59.93697327
 H     45  44  42     2.053154797254   105.57310553   179.41657570
 H     46  16  14     2.065688053147   107.62327232   296.87668026
 H     46  16  14     2.054408156300   108.65137100    52.88918616
 H     47  46  16     2.052949463210   114.85632311    60.90451933
 H     49  48  47     2.066542551928   110.03786682   134.98372840
 H     49  48  47     2.066468440772   111.17010710   252.87050003
 H     49  48  47     2.055709651459   113.18723214    14.06021615
 H     50  48  47     2.073269180030   108.84654230   235.16917089
 H     50  48  47     2.065502590993   109.46381553   351.48176087
 H     51  50  48     2.065686891209   108.48613637   302.00526767
 H     51  50  48     2.068239747800   109.89914245    58.07575953
 H     52  51  50     2.070558215575   108.37733942   304.87809236
 H     52  51  50     2.073178241497   109.45671986    60.08109449
 H     53  52  51     2.076124679155   107.48942116    52.84898143
 H     54  53  52     2.060952095656   111.70967107    57.08510038
 H     54  53  52     2.060571305511   111.69577010   177.17336907
 H     54  53  52     2.068431193553   110.49338561   297.11876573
 H     55  53  52     2.070494620007   108.34990725   309.86932652
 H     55  53  52     2.073530430084   108.96307873    64.72478856
 H     56  55  53     2.063192857464   109.73417016   297.73589370
 H     56  55  53     2.072866569669   109.18287149    53.84271799
 H     57  56  55     2.070667986500   108.55144520   305.63648243
 H     57  56  55     2.073423306182   109.31761477    60.77270626
 H     58  57  56     2.075864570548   107.50312798    54.35411304
 H     59  58  57     2.068642290326   110.43194757   298.33047336
 H     59  58  57     2.060979552090   111.79940661    58.27252283
 H     59  58  57     2.060775455023   111.70819168   178.41048480
 H     60  58  57     2.070712788505   108.37083783   310.16084563
 H     60  58  57     2.073358358534   108.92946885    65.00155316
 H     61  60  58     2.068225882851   110.16503112   296.70845958
 H     61  60  58     2.068618255392   108.80902643    52.84696571
 H     62  61  60     2.073852647832   109.38484606   298.25766262
 H     62  61  60     2.070952095832   108.61617800    53.43777342
 H     63  62  61     2.074187102777   107.55338088   303.85862343
 H     64  63  62     2.068337101264   110.64487396    59.29474490
 H     64  63  62     2.064366106672   110.92854484   178.68358653
 H     64  63  62     2.061476925239   112.09956099   298.94774306
 H     65  63  62     2.064655003018   111.36705533    57.06330813
 H     65  63  62     2.064359379984   111.33184149   177.57061750
 H     65  63  62     2.067680245315   110.71834319   297.27783005

---------------------
BASIS SET INFORMATION
---------------------
There are 5 groups of distinct atoms

 Group   1 Type Mg  : 14s8p3d contracted to 5s4p3d pattern {73211/5111/111}
 Group   2 Type C   : 11s6p2d1f contracted to 5s3p2d1f pattern {62111/411/11/1}
 Group   3 Type N   : 11s6p2d1f contracted to 5s3p2d1f pattern {62111/411/11/1}
 Group   4 Type O   : 11s6p2d1f contracted to 5s3p2d1f pattern {62111/411/11/1}
 Group   5 Type H   : 5s1p contracted to 3s1p pattern {311/1}

Atom   0Mg   basis set group =>   1
Atom   1C    basis set group =>   2
Atom   2C    basis set group =>   2
Atom   3C    basis set group =>   2
Atom   4C    basis set group =>   2
Atom   5N    basis set group =>   3
Atom   6C    basis set group =>   2
Atom   7C    basis set group =>   2
Atom   8C    basis set group =>   2
Atom   9C    basis set group =>   2
Atom  10C    basis set group =>   2
Atom  11C    basis set group =>   2
Atom  12C    basis set group =>   2
Atom  13C    basis set group =>   2
Atom  14O    basis set group =>   4
Atom  15O    basis set group =>   4
Atom  16N    basis set group =>   3
Atom  17C    basis set group =>   2
Atom  18C    basis set group =>   2
Atom  19C    basis set group =>   2
Atom  20C    basis set group =>   2
Atom  21C    basis set group =>   2
Atom  22C    basis set group =>   2
Atom  23C    basis set group =>   2
Atom  24N    basis set group =>   3
Atom  25C    basis set group =>   2
Atom  26C    basis set group =>   2
Atom  27C    basis set group =>   2
Atom  28C    basis set group =>   2
Atom  29C    basis set group =>   2
Atom  30C    basis set group =>   2
Atom  31C    basis set group =>   2
Atom  32N    basis set group =>   3
Atom  33C    basis set group =>   2
Atom  34C    basis set group =>   2
Atom  35C    basis set group =>   2
Atom  36C    basis set group =>   2
Atom  37C    basis set group =>   2
Atom  38C    basis set group =>   2
Atom  39O    basis set group =>   4
Atom  40C    basis set group =>   2
Atom  41C    basis set group =>   2
Atom  42O    basis set group =>   4
Atom  43O    basis set group =>   4
Atom  44C    basis set group =>   2
Atom  45C    basis set group =>   2
Atom  46C    basis set group =>   2
Atom  47C    basis set group =>   2
Atom  48C    basis set group =>   2
Atom  49C    basis set group =>   2
Atom  50C    basis set group =>   2
Atom  51C    basis set group =>   2
Atom  52C    basis set group =>   2
Atom  53C    basis set group =>   2
Atom  54C    basis set group =>   2
Atom  55C    basis set group =>   2
Atom  56C    basis set group =>   2
Atom  57C    basis set group =>   2
Atom  58C    basis set group =>   2
Atom  59C    basis set group =>   2
Atom  60C    basis set group =>   2
Atom  61C    basis set group =>   2
Atom  62C    basis set group =>   2
Atom  63C    basis set group =>   2
Atom  64C    basis set group =>   2
Atom  65H    basis set group =>   5
Atom  66H    basis set group =>   5
Atom  67H    basis set group =>   5
Atom  68H    basis set group =>   5
Atom  69H    basis set group =>   5
Atom  70H    basis set group =>   5
Atom  71H    basis set group =>   5
Atom  72H    basis set group =>   5
Atom  73H    basis set group =>   5
Atom  74H    basis set group =>   5
Atom  75H    basis set group =>   5
Atom  76H    basis set group =>   5
Atom  77H    basis set group =>   5
Atom  78H    basis set group =>   5
Atom  79H    basis set group =>   5
Atom  80H    basis set group =>   5
Atom  81H    basis set group =>   5
Atom  82H    basis set group =>   5
Atom  83H    basis set group =>   5
Atom  84H    basis set group =>   5
Atom  85H    basis set group =>   5
Atom  86H    basis set group =>   5
Atom  87H    basis set group =>   5
Atom  88H    basis set group =>   5
Atom  89H    basis set group =>   5
Atom  90H    basis set group =>   5
Atom  91H    basis set group =>   5
Atom  92H    basis set group =>   5
Atom  93H    basis set group =>   5
Atom  94H    basis set group =>   5
Atom  95H    basis set group =>   5
Atom  96H    basis set group =>   5
Atom  97H    basis set group =>   5
Atom  98H    basis set group =>   5
Atom  99H    basis set group =>   5
Atom 100H    basis set group =>   5
Atom 101H    basis set group =>   5
Atom 102H    basis set group =>   5
Atom 103H    basis set group =>   5
Atom 104H    basis set group =>   5
Atom 105H    basis set group =>   5
Atom 106H    basis set group =>   5
Atom 107H    basis set group =>   5
Atom 108H    basis set group =>   5
Atom 109H    basis set group =>   5
Atom 110H    basis set group =>   5
Atom 111H    basis set group =>   5
Atom 112H    basis set group =>   5
Atom 113H    basis set group =>   5
Atom 114H    basis set group =>   5
Atom 115H    basis set group =>   5
Atom 116H    basis set group =>   5
Atom 117H    basis set group =>   5
Atom 118H    basis set group =>   5
Atom 119H    basis set group =>   5
Atom 120H    basis set group =>   5
Atom 121H    basis set group =>   5
Atom 122H    basis set group =>   5
Atom 123H    basis set group =>   5
Atom 124H    basis set group =>   5
Atom 125H    basis set group =>   5
Atom 126H    basis set group =>   5
Atom 127H    basis set group =>   5
Atom 128H    basis set group =>   5
Atom 129H    basis set group =>   5
Atom 130H    basis set group =>   5
Atom 131H    basis set group =>   5
Atom 132H    basis set group =>   5
Atom 133H    basis set group =>   5
Atom 134H    basis set group =>   5
Atom 135H    basis set group =>   5
Atom 136H    basis set group =>   5
---------------------------------
AUXILIARY/J BASIS SET INFORMATION
---------------------------------
There are 5 groups of distinct atoms

 Group   1 Type Mg  : 14s5p5d2f1g contracted to 8s4p4d1f1g pattern {71111111/2111/2111/2/1}
 Group   2 Type C   : 12s5p4d2f1g contracted to 6s4p3d1f1g pattern {711111/2111/211/2/1}
 Group   3 Type N   : 12s5p4d2f1g contracted to 6s4p3d1f1g pattern {711111/2111/211/2/1}
 Group   4 Type O   : 12s5p4d2f1g contracted to 6s4p3d1f1g pattern {711111/2111/211/2/1}
 Group   5 Type H   : 5s2p1d contracted to 3s1p1d pattern {311/2/1}

Atom   0Mg   basis set group =>   1
Atom   1C    basis set group =>   2
Atom   2C    basis set group =>   2
Atom   3C    basis set group =>   2
Atom   4C    basis set group =>   2
Atom   5N    basis set group =>   3
Atom   6C    basis set group =>   2
Atom   7C    basis set group =>   2
Atom   8C    basis set group =>   2
Atom   9C    basis set group =>   2
Atom  10C    basis set group =>   2
Atom  11C    basis set group =>   2
Atom  12C    basis set group =>   2
Atom  13C    basis set group =>   2
Atom  14O    basis set group =>   4
Atom  15O    basis set group =>   4
Atom  16N    basis set group =>   3
Atom  17C    basis set group =>   2
Atom  18C    basis set group =>   2
Atom  19C    basis set group =>   2
Atom  20C    basis set group =>   2
Atom  21C    basis set group =>   2
Atom  22C    basis set group =>   2
Atom  23C    basis set group =>   2
Atom  24N    basis set group =>   3
Atom  25C    basis set group =>   2
Atom  26C    basis set group =>   2
Atom  27C    basis set group =>   2
Atom  28C    basis set group =>   2
Atom  29C    basis set group =>   2
Atom  30C    basis set group =>   2
Atom  31C    basis set group =>   2
Atom  32N    basis set group =>   3
Atom  33C    basis set group =>   2
Atom  34C    basis set group =>   2
Atom  35C    basis set group =>   2
Atom  36C    basis set group =>   2
Atom  37C    basis set group =>   2
Atom  38C    basis set group =>   2
Atom  39O    basis set group =>   4
Atom  40C    basis set group =>   2
Atom  41C    basis set group =>   2
Atom  42O    basis set group =>   4
Atom  43O    basis set group =>   4
Atom  44C    basis set group =>   2
Atom  45C    basis set group =>   2
Atom  46C    basis set group =>   2
Atom  47C    basis set group =>   2
Atom  48C    basis set group =>   2
Atom  49C    basis set group =>   2
Atom  50C    basis set group =>   2
Atom  51C    basis set group =>   2
Atom  52C    basis set group =>   2
Atom  53C    basis set group =>   2
Atom  54C    basis set group =>   2
Atom  55C    basis set group =>   2
Atom  56C    basis set group =>   2
Atom  57C    basis set group =>   2
Atom  58C    basis set group =>   2
Atom  59C    basis set group =>   2
Atom  60C    basis set group =>   2
Atom  61C    basis set group =>   2
Atom  62C    basis set group =>   2
Atom  63C    basis set group =>   2
Atom  64C    basis set group =>   2
Atom  65H    basis set group =>   5
Atom  66H    basis set group =>   5
Atom  67H    basis set group =>   5
Atom  68H    basis set group =>   5
Atom  69H    basis set group =>   5
Atom  70H    basis set group =>   5
Atom  71H    basis set group =>   5
Atom  72H    basis set group =>   5
Atom  73H    basis set group =>   5
Atom  74H    basis set group =>   5
Atom  75H    basis set group =>   5
Atom  76H    basis set group =>   5
Atom  77H    basis set group =>   5
Atom  78H    basis set group =>   5
Atom  79H    basis set group =>   5
Atom  80H    basis set group =>   5
Atom  81H    basis set group =>   5
Atom  82H    basis set group =>   5
Atom  83H    basis set group =>   5
Atom  84H    basis set group =>   5
Atom  85H    basis set group =>   5
Atom  86H    basis set group =>   5
Atom  87H    basis set group =>   5
Atom  88H    basis set group =>   5
Atom  89H    basis set group =>   5
Atom  90H    basis set group =>   5
Atom  91H    basis set group =>   5
Atom  92H    basis set group =>   5
Atom  93H    basis set group =>   5
Atom  94H    basis set group =>   5
Atom  95H    basis set group =>   5
Atom  96H    basis set group =>   5
Atom  97H    basis set group =>   5
Atom  98H    basis set group =>   5
Atom  99H    basis set group =>   5
Atom 100H    basis set group =>   5
Atom 101H    basis set group =>   5
Atom 102H    basis set group =>   5
Atom 103H    basis set group =>   5
Atom 104H    basis set group =>   5
Atom 105H    basis set group =>   5
Atom 106H    basis set group =>   5
Atom 107H    basis set group =>   5
Atom 108H    basis set group =>   5
Atom 109H    basis set group =>   5
Atom 110H    basis set group =>   5
Atom 111H    basis set group =>   5
Atom 112H    basis set group =>   5
Atom 113H    basis set group =>   5
Atom 114H    basis set group =>   5
Atom 115H    basis set group =>   5
Atom 116H    basis set group =>   5
Atom 117H    basis set group =>   5
Atom 118H    basis set group =>   5
Atom 119H    basis set group =>   5
Atom 120H    basis set group =>   5
Atom 121H    basis set group =>   5
Atom 122H    basis set group =>   5
Atom 123H    basis set group =>   5
Atom 124H    basis set group =>   5
Atom 125H    basis set group =>   5
Atom 126H    basis set group =>   5
Atom 127H    basis set group =>   5
Atom 128H    basis set group =>   5
Atom 129H    basis set group =>   5
Atom 130H    basis set group =>   5
Atom 131H    basis set group =>   5
Atom 132H    basis set group =>   5
Atom 133H    basis set group =>   5
Atom 134H    basis set group =>   5
Atom 135H    basis set group =>   5
Atom 136H    basis set group =>   5


           ************************************************************
           *        Program running with 4 parallel MPI-processes     *
           *              working on a common directory               *
           ************************************************************
------------------------------------------------------------------------------
                             ORCA STARTUP CALCULATIONS
                           -- RI-GTO INTEGRALS CHOSEN --
------------------------------------------------------------------------------
------------------------------------------------------------------------------
                   ___                                                        
                  /   \      - P O W E R E D   B Y -                         
                 /     \                                                     
                 |  |  |   _    _      __       _____    __    __             
                 |  |  |  | |  | |    /  \     |  _  \  |  |  /  |          
                  \  \/   | |  | |   /    \    | | | |  |  | /  /          
                 / \  \   | |__| |  /  /\  \   | |_| |  |  |/  /          
                |  |  |   |  __  | /  /__\  \  |    /   |      \           
                |  |  |   | |  | | |   __   |  |    \   |  |\   \          
                \     /   | |  | | |  |  |  |  | |\  \  |  | \   \       
                 \___/    |_|  |_| |__|  |__|  |_| \__\ |__|  \__/        
                                                                              
                      - O R C A' S   B I G   F R I E N D -                    
                                      &                                       
                       - I N T E G R A L  F E E D E R -                       
                                                                              
 v1 FN, 2020, v2 2021, v3 2022-2024                                           
------------------------------------------------------------------------------


----------------------
SHARK INTEGRAL PACKAGE
----------------------

Number of atoms                             ...    137
Number of basis functions                   ...   2448
Number of shells                            ...   1004
Maximum angular momentum                    ...      3
Integral batch strategy                     ... SHARK/LIBINT Hybrid
RI-J (if used) integral strategy            ... SPLIT-RIJ (Revised 2003 algorithm where possible)
Printlevel                                  ...      1
Contraction scheme used                     ... SEGMENTED contraction
Prescreening option                         ... SCHWARTZ
   Thresh                                   ... 2.500e-11
   Tcut                                     ... 2.500e-12
   Tpresel                                  ... 2.500e-12 
Coulomb Range Separation                    ... NOT USED
Exchange Range Separation                   ... Long Range
   Mu parameter                             ... 2.500e-01
   Scaling (regular/separated)              ... 1.957e-01 8.043e-01
Robust (split-)RI terms used:
  metric    (central integrals)             ... YES
  density   (r.h.s.  integrals)             ... YES
  potential (l.h.s.  integrals)             ... YES
Multipole approximations                    ... NOT USED
Finite Nucleus Model                        ... NOT USED
CABS basis                                  ... NOT available
Auxiliary Coulomb fitting basis             ... AVAILABLE
   # of basis functions in Aux-J            ...   3984
   # of shells in Aux-J                     ...   1338
   Maximum angular momentum in Aux-J        ...      4
Auxiliary J/K fitting basis                 ... NOT available
Auxiliary Correlation fitting basis         ... NOT available
Auxiliary 'external' fitting basis          ... NOT available

Checking pre-screening integrals            ... done (  0.0 sec) Dimension = 1004
   => SHARK Basis and OBASIS are compatible. Storing Pre-screening
Shell pair information
Shell pair cut-off parameter TPreSel        ...   2.5e-12
Total number of shell pairs                 ...    504510
Shell pairs after pre-screening             ...    146480
Total number of primitive shell pairs       ...   1511112
Primitive shell pairs kept                  ...    279455
          la=0 lb=0:  40911 shell pairs
          la=1 lb=0:  44353 shell pairs
          la=1 lb=1:  12180 shell pairs
          la=2 lb=0:  19510 shell pairs
          la=2 lb=1:  10927 shell pairs
          la=2 lb=2:   2499 shell pairs
          la=3 lb=0:   8664 shell pairs
          la=3 lb=1:   4889 shell pairs
          la=3 lb=2:   2077 shell pairs
          la=3 lb=3:    470 shell pairs

Checking whether 4 symmetric matrices of dimension 2448 fit in memory
:Max Core in MB      =   2200.00
 MB in use           =    175.73
 MB left             =   2024.27
 MB needed           =     91.48
 Data fit in memory  = YES
Calculating RI/J V-Matrix + Cholesky decomp.... done (  1.9 sec)
Calculating Nuclear repulsion               ... done (  0.0 sec) ENN=   8806.212563571489 Eh

Diagonalization of the overlap matrix:
Smallest eigenvalue                        ... 3.523e-06
Time for diagonalization                   ...    2.759 sec
Threshold for overlap eigenvalues          ... 1.000e-07
Number of eigenvalues below threshold      ... 0
Time for construction of square roots      ...    3.324 sec
Total time needed                          ...    6.150 sec

-------------------
DFT GRID GENERATION
-------------------

General Integration Accuracy     IntAcc      ... 4.959
Radial Grid Type                 RadialGrid  ... OptM3 with GC (2021)
Angular Grid (max. ang.)         AngularGrid ... 6 (Lebedev-590)
Angular grid pruning method      GridPruning ... 4 (adaptive)
Weight generation scheme         WeightScheme... mBecke (2022)
Basis function cutoff            BFCut       ... 1.0000e-11
Integration weight cutoff        WCut        ... 1.0000e-14
Partially contracted basis set               ... off
Rotationally invariant grid construction     ... off
Angular grids for H and He will be reduced by one unit

Total number of grid points                  ...  1524069
Total number of batches                      ...    23877
Average number of points per batch           ...       63
Average number of grid points per atom       ...    11125

--------------------
COSX GRID GENERATION
--------------------

GRIDX 1
-------
General Integration Accuracy     IntAcc      ... 4.020
Radial Grid Type                 RadialGrid  ... OptM3 with GC (2021)
Angular Grid (max. ang.)         AngularGrid ... 2 (Lebedev-110)
Angular grid pruning method      GridPruning ... 4 (adaptive)
Weight generation scheme         WeightScheme... mBecke (2022)
Basis function cutoff            BFCut       ... 1.0000e-11
Integration weight cutoff        WCut        ... 1.0000e-14
Partially contracted basis set               ... on
Rotationally invariant grid construction     ... off
Angular grids for H and He will be reduced by one unit

Total number of grid points                  ...   164449
Total number of batches                      ...     1364
Average number of points per batch           ...      120
Average number of grid points per atom       ...     1200
UseSFitting                                  ... on

GRIDX 2
-------
General Integration Accuracy     IntAcc      ... 4.338
Radial Grid Type                 RadialGrid  ... OptM3 with GC (2021)
Angular Grid (max. ang.)         AngularGrid ... 3 (Lebedev-194)
Angular grid pruning method      GridPruning ... 4 (adaptive)
Weight generation scheme         WeightScheme... mBecke (2022)
Basis function cutoff            BFCut       ... 1.0000e-11
Integration weight cutoff        WCut        ... 1.0000e-14
Partially contracted basis set               ... on
Rotationally invariant grid construction     ... off
Angular grids for H and He will be reduced by one unit

Total number of grid points                  ...   357572
Total number of batches                      ...     2863
Average number of points per batch           ...      124
Average number of grid points per atom       ...     2610
UseSFitting                                  ... on

GRIDX 3
-------
General Integration Accuracy     IntAcc      ... 4.871
Radial Grid Type                 RadialGrid  ... OptM3 with GC (2021)
Angular Grid (max. ang.)         AngularGrid ... 4 (Lebedev-302)
Angular grid pruning method      GridPruning ... 4 (adaptive)
Weight generation scheme         WeightScheme... mBecke (2022)
Basis function cutoff            BFCut       ... 1.0000e-11
Integration weight cutoff        WCut        ... 1.0000e-14
Partially contracted basis set               ... on
Rotationally invariant grid construction     ... off
Angular grids for H and He will be reduced by one unit

Total number of grid points                  ...   678711
Total number of batches                      ...     5378
Average number of points per batch           ...      126
Average number of grid points per atom       ...     4954
UseSFitting                                  ... on
Grids setup in  71.1 sec
Initializing property integral containers    ... done (  0.0 sec)

SHARK setup successfully completed in  83.4 seconds

Maximum memory used throughout the entire STARTUP-calculation: 524.3 MB


           ************************************************************
           *        Program running with 4 parallel MPI-processes     *
           *              working on a common directory               *
           ************************************************************
-------------------------------------------------------------------------------
                                 ORCA GUESS
                   Start orbitals & Density for SCF / CASSCF
-------------------------------------------------------------------------------

------------
SCF SETTINGS
------------
Hamiltonian:
 Density Functional     Method          .... DFT(GTOs)
 Exchange Functional    Exchange        .... WB97X-D3
 Correlation Functional Correlation     .... WB97X-D3
 Gradients option       PostSCFGGA      .... off
 Hybrid DFT is turned on
   Fraction HF Exchange ScalHFX         ....  0.195728
   Scaling of DF-GGA-X  ScalDFX         ....  0.000000
   Scaling of DF-GGA-C  ScalDFC         ....  1.000000
   Scaling of DF-LDA-C  ScalLDAC        ....  1.000000
   Perturbative correction              ....  0.000000
 Long-range corrected/Screened/Range-Separated Hybrid DFT is turned on
   Amount of maximum screened exact exchange              ....  0.804272
   Range separation parameter mu (erf(mu*r12)/r12)        ....  0.250000
 RI-approximation to the Coulomb term is turned on
   Number of AuxJ basis functions       .... 3984
   RIJ-COSX (HFX calculated with COS-X)).... on


General Settings:
 Integral files         IntName         .... tddft
 Hartree-Fock type      HFTyp           .... RHF
 Total Charge           Charge          ....    0
 Multiplicity           Mult            ....    1
 Number of Electrons    NEL             ....  482
 Basis Dimension        Dim             .... 2448
 Nuclear Repulsion      ENuc            ....   8806.2125635715 Eh

Convergence Acceleration:
 AO-DIIS                CNVDIIS         .... on
   Start iteration      DIISMaxIt       ....    12
   Startup error        DIISStart       ....  0.200000
   # of expansion vecs  DIISMaxEq       ....     5
   Bias factor          DIISBfac        ....   1.050
   Max. coefficient     DIISMaxC        ....  10.000
 MO-DIIS                CNVKDIIS        .... off
 Trust-Rad. Augm. Hess. CNVTRAH         .... auto
   Auto Start mean grad. ratio tolernc. ....  1.125000
   Auto Start start iteration           ....    50
   Auto Start num. interpolation iter.  ....    10
   Max. Number of Micro iterations      ....    24
   Max. Number of Macro iterations      .... Maxiter - #DIIS iter
   Number of Davidson start vectors     ....     2
   Converg. threshold    (grad. norm)   ....   1.000e-05
   Grad. Scal. Fac. for Micro threshold ....   0.100
   Minimum threshold for Micro iter.    ....   1.000e-02
   NR start threshold (gradient norm)   ....   1.000e-04
   Initial trust radius                 ....   0.400
   Minimum AH scaling param. (alpha)    ....   1.000
   Maximum AH scaling param. (alpha)    .... 1000.000
   Quad. conv. algorithm                .... NR
   White noise on init. David. guess    .... on
   Maximum white noise                  ....   0.010
   Pseudo random numbers                .... off
   Inactive MOs                         .... canonical
   Orbital update algorithm             .... Taylor
   Preconditioner                       .... Diag
   Full preconditioner red. dimension   ....   250
 SOSCF                 CNVSOSCF           .... on
   Start iteration     SOSCFMaxIt         ....   150
   Startup grad/error  SOSCFStart         ....  0.003300
   Hessian update      SOSCFHessUp        .... L-BFGS
   Autom. constraints  SOSCFAutoConstrain .... off
 Level Shifting         CNVShift        .... on
   Level shift para.    LevelShift      ....    0.2500
   Turn off err/grad.   ShiftErr        ....    0.0010
 Zerner damping         CNVZerner       .... off
 Static damping         CNVDamp         .... on
   Fraction old density DampFac         ....    0.7000
   Max. Damping (<1)    DampMax         ....    0.9800
   Min. Damping (>=0)   DampMin         ....    0.0000
   Turn off err/grad.   DampErr         ....    0.1000

SCF Procedure:
 Maximum # iterations   MaxIter         ....   125
 SCF integral mode      SCFMode         .... Direct
   Integral package                     .... SHARK and LIBINT hybrid scheme
 Reset frequency        DirectResetFreq ....    20
 Integral Threshold     Thresh          ....  2.500e-11 Eh
 Primitive CutOff       TCut            ....  2.500e-12 Eh

Convergence Tolerance:
 Convergence Check Mode ConvCheckMode   .... Total+1el-Energy
 Convergence forced     ConvForced      .... 1
 Energy Change          TolE            ....  1.000e-08 Eh
 1-El. energy change                    ....  1.000e-05 Eh
 Orbital Gradient       TolG            ....  1.000e-05
 Orbital Rotation angle TolX            ....  1.000e-05
 DIIS Error             TolErr          ....  5.000e-07

------------------------------
INITIAL GUESS: MODEL POTENTIAL
------------------------------
Loading Hartree-Fock densities                     ... done
Calculating cut-offs                               ... done
Initializing the effective Hamiltonian             ... done
Setting up the integral package (SHARK)            ... done
Starting the Coulomb interaction                   ... done (  16.3 sec)
Making the grid                                    ... done (   3.1 sec)
Mapping shells                                     ... done
Starting the XC term evaluation                    ... done (   3.0 sec)
  promolecular density results
     # of electrons  =    481.975676764
     EX              =   -385.790702513
     EC              =    -16.191639786
     EX+EC           =   -401.982342299
Transforming the Hamiltonian                       ... done (   1.9 sec)
Diagonalizing the Hamiltonian                      ... done (   2.6 sec)
Back transforming the eigenvectors                 ... done (   1.3 sec)
Now organizing SCF variables                       ... done
                      ------------------
                      INITIAL GUESS DONE (  29.2 sec)
                      ------------------
             **** ENERGY FILE WAS UPDATED (tddft.en.tmp) ****
Finished Guess after  36.4 sec
Maximum memory used throughout the entire GUESS-calculation: 332.6 MB


           ************************************************************
           *        Program running with 4 parallel MPI-processes     *
           *              working on a common directory               *
           ************************************************************

-------------------------------------------------------------------------------------------
                                      ORCA LEAN-SCF
                              memory conserving SCF solver
-------------------------------------------------------------------------------------------

--------------------
CPCM SOLVATION MODEL
--------------------
CPCM parameters:
  Epsilon                                         ...       8.9990
  Refrac                                          ...       1.4242
  Rsolv                                           ...       1.3000
  Surface type                                    ... GAUSSIAN VDW
  Discretization scheme                           ... Constant charge density
    Threshold for H atoms                         ...       5.0000 (charges/Ang^2)
    Threshold for non-H atoms                     ...       5.0000 (charges/Ang^2)
  Epsilon function type                           ...         CPCM
Solvent:                                          ... DICHLOROMETHANE
Radii:
  Scheme                                          ... Element-dependent radii
  Radius for Mg used is    3.9231 Bohr (=   2.0760 Ang.)
  Radius for C  used is    3.8550 Bohr (=   2.0400 Ang.)
  Radius for N  used is    3.5149 Bohr (=   1.8600 Ang.)
  Radius for O  used is    3.4469 Bohr (=   1.8240 Ang.)
  Radius for H  used is    2.4944 Bohr (=   1.3200 Ang.)
Calculating surface                               ...        done! (  0.1s)
Cavity surface points                             ...        10901
Cavity Volume                                     ...    7471.3652
Cavity Surface-area                               ...    3694.6092
Calculating surface distance matrix               ...        done! (  2.7s)
Performing Cholesky decomposition & store         ...        done! ( 23.2s)
Overall time for CPCM initialization              ...                26.1s

----------------------------------------D-I-I-S--------------------------------------------
Iteration    Energy (Eh)           Delta-E    RMSDP     MaxDP     DIISErr   Damp  Time(sec)
-------------------------------------------------------------------------------------------
               ***  Starting incremental Fock matrix formation  ***
    1    -2933.1313603971921111     0.00e+00  1.18e-03  9.64e-02  2.73e-01  0.700 1040.6
    2    -2933.8230401705004624    -6.92e-01  1.05e-03  1.09e-01  1.34e-01  0.700 436.9
                               ***Turning on AO-DIIS***
    3    -2934.1772941099334275    -3.54e-01  6.23e-04  5.74e-02  5.61e-02  0.700 441.5
    4    -2934.3895977096854040    -2.12e-01  1.41e-03  1.18e-01  4.18e-02  0.000 422.5
    5    -2934.8463829759784858    -4.57e-01  1.64e-04  2.04e-02  7.29e-03  0.000 460.4
    6    -2934.8476934539248759    -1.31e-03  6.52e-05  4.02e-03  4.53e-03  0.000 388.0
                              *** Initializing SOSCF ***
---------------------------------------S-O-S-C-F--------------------------------------
Iteration    Energy (Eh)           Delta-E    RMSDP     MaxDP     MaxGrad    Time(sec)
--------------------------------------------------------------------------------------
    7    -2934.8480770694168314    -3.84e-04  5.07e-05  3.98e-03  8.72e-04   334.2
               *** Restarting incremental Fock matrix formation ***
    8    -2934.8482508948764007    -1.74e-04  8.94e-05  7.28e-03  1.99e-03  1286.6
    9    -2934.8484049000107916    -1.54e-04  1.20e-04  7.38e-03  1.17e-03   958.8
   10    -2934.8485239462934260    -1.19e-04  8.32e-05  6.97e-03  5.83e-04   966.4
   11    -2934.8485499893831729    -2.60e-05  1.80e-05  1.32e-03  1.87e-04   934.4
   12    -2934.8485555150382424    -5.53e-06  1.68e-05  1.80e-03  8.49e-05   732.7
   13    -2934.8485573235993797    -1.81e-06  9.18e-06  8.94e-04  7.02e-05   783.4
   14    -2934.8485576126222441    -2.89e-07  9.65e-06  9.94e-04  3.40e-05   677.8
   15    -2934.8485577244809974    -1.12e-07  7.67e-06  6.16e-04  2.13e-05   715.5
   16    -2934.8485577685441967    -4.41e-08  1.27e-05  2.18e-03  1.24e-05   600.2
   17    -2934.8485578073159559    -3.88e-08  7.10e-06  1.04e-03  6.11e-06   754.7
   18    -2934.8485578025265568     4.79e-09  5.59e-06  4.96e-04  2.62e-06   542.0
                 **** Energy Check signals convergence ****

               *****************************************************
               *                     SUCCESS                       *
               *           SCF CONVERGED AFTER  18 CYCLES          *
               *****************************************************

Recomputing exchange energy using gridx3       ... done ( 2416.842 sec)
Old exchange energy                            :   -128.926056614 Eh
New exchange energy                            :   -128.926052509 Eh
Exchange energy change after final integration :      0.000004105 Eh
Total energy after final integration           :  -2934.848553702 Eh
             **** ENERGY FILE WAS UPDATED (tddft.en.tmp) ****

----------------
TOTAL SCF ENERGY
----------------

Total Energy       :      -2934.84855370193418 Eh          -79861.28922 eV

Components:
Nuclear Repulsion  :       8806.21256357148923 Eh          239629.22637 eV
Electronic Energy  :     -11741.02011660093922 Eh         -319489.39990 eV
One Electron Energy:     -21532.05083345663297 Eh         -585916.89062 eV
Two Electron Energy:       9791.03071685569375 Eh          266427.49072 eV
CPCM Dielectric    :         -0.04100477755206 Eh              -1.11580 eV

Virial components:
Potential Energy   :      -5855.91502708037933 Eh         -159347.54896 eV
Kinetic Energy     :       2921.06647337844515 Eh           79486.25974 eV
Virial Ratio       :          2.00471816730263

DFT components:
N(Alpha)           :      241.000000984974 electrons
N(Beta)            :      241.000000984974 electrons
N(Total)           :      482.000001969948 electrons
E(XC)              :     -283.960903153178 Eh       

CPCM Solvation Model Properties:
Surface-charge          :         -0.07185496307135
Corrected charge        :          0.00000000000000
Outlying charge corr.   :          0.00013353553739 Eh               0.00363 eV
Free-energy (cav+disp)  :  This term is not implemented in the current solvation scheme

---------------
SCF CONVERGENCE
---------------

  Last Energy change         ...   -4.7894e-09  Tolerance :   1.0000e-08
  Last MAX-Density change    ...    4.9570e-04  Tolerance :   1.0000e-07
  Last RMS-Density change    ...    5.5897e-06  Tolerance :   5.0000e-09
  Last DIIS Error            ...    8.7229e-04  Tolerance :   5.0000e-07
  Last Orbital Gradient      ...    2.6151e-06  Tolerance :   1.0000e-05
  Last Orbital Rotation      ...    1.8270e-05  Tolerance :   1.0000e-05


----------------
ORBITAL ENERGIES
----------------

  NO   OCC          E(Eh)            E(eV) 
   0   2.0000     -46.853424     -1274.9465 
   1   2.0000     -19.286323      -524.8075 
   2   2.0000     -19.279165      -524.6128 
   3   2.0000     -19.229490      -523.2610 
   4   2.0000     -19.228865      -523.2440 
   5   2.0000     -19.224279      -523.1192 
   6   2.0000     -14.430218      -392.6662 
   7   2.0000     -14.411473      -392.1561 
   8   2.0000     -14.410622      -392.1329 
   9   2.0000     -14.410361      -392.1259 
  10   2.0000     -10.418157      -283.4925 
  11   2.0000     -10.411819      -283.3200 
  12   2.0000     -10.385526      -282.6045 
  13   2.0000     -10.331560      -281.1360 
  14   2.0000     -10.330582      -281.1094 
  15   2.0000     -10.326518      -280.9989 
  16   2.0000     -10.325284      -280.9653 
  17   2.0000     -10.324730      -280.9502 
  18   2.0000     -10.317067      -280.7417 
  19   2.0000     -10.310569      -280.5648 
  20   2.0000     -10.310369      -280.5594 
  21   2.0000     -10.310165      -280.5538 
  22   2.0000     -10.309787      -280.5436 
  23   2.0000     -10.309753      -280.5426 
  24   2.0000     -10.304966      -280.4124 
  25   2.0000     -10.299417      -280.2614 
  26   2.0000     -10.292806      -280.0815 
  27   2.0000     -10.291705      -280.0515 
  28   2.0000     -10.290951      -280.0310 
  29   2.0000     -10.290936      -280.0306 
  30   2.0000     -10.290461      -280.0177 
  31   2.0000     -10.289575      -279.9936 
  32   2.0000     -10.289081      -279.9801 
  33   2.0000     -10.288172      -279.9554 
  34   2.0000     -10.286188      -279.9014 
  35   2.0000     -10.281166      -279.7648 
  36   2.0000     -10.279440      -279.7178 
  37   2.0000     -10.277845      -279.6744 
  38   2.0000     -10.276905      -279.6488 
  39   2.0000     -10.275812      -279.6191 
  40   2.0000     -10.274585      -279.5857 
  41   2.0000     -10.274287      -279.5776 
  42   2.0000     -10.272567      -279.5308 
  43   2.0000     -10.272026      -279.5160 
  44   2.0000     -10.270796      -279.4826 
  45   2.0000     -10.270302      -279.4691 
  46   2.0000     -10.269899      -279.4582 
  47   2.0000     -10.269149      -279.4377 
  48   2.0000     -10.268983      -279.4332 
  49   2.0000     -10.268709      -279.4258 
  50   2.0000     -10.267704      -279.3984 
  51   2.0000     -10.266482      -279.3652 
  52   2.0000     -10.265721      -279.3445 
  53   2.0000     -10.262354      -279.2528 
  54   2.0000     -10.261369      -279.2260 
  55   2.0000     -10.259426      -279.1732 
  56   2.0000     -10.259183      -279.1665 
  57   2.0000     -10.259110      -279.1646 
  58   2.0000     -10.258929      -279.1596 
  59   2.0000     -10.258822      -279.1567 
  60   2.0000     -10.258716      -279.1539 
  61   2.0000     -10.253972      -279.0248 
  62   2.0000     -10.253643      -279.0158 
  63   2.0000     -10.253618      -279.0151 
  64   2.0000     -10.252922      -278.9962 
  65   2.0000      -3.163873       -86.0934 
  66   2.0000      -1.901860       -51.7522 
  67   2.0000      -1.896564       -51.6081 
  68   2.0000      -1.896048       -51.5941 
  69   2.0000      -1.234188       -33.5840 
  70   2.0000      -1.226875       -33.3850 
  71   2.0000      -1.171394       -31.8753 
  72   2.0000      -1.144943       -31.1555 
  73   2.0000      -1.139421       -31.0052 
  74   2.0000      -1.089688       -29.6519 
  75   2.0000      -1.081060       -29.4171 
  76   2.0000      -1.076846       -29.3025 
  77   2.0000      -1.067211       -29.0403 
  78   2.0000      -0.970205       -26.4006 
  79   2.0000      -0.949170       -25.8282 
  80   2.0000      -0.940016       -25.5791 
  81   2.0000      -0.938202       -25.5298 
  82   2.0000      -0.934414       -25.4267 
  83   2.0000      -0.931224       -25.3399 
  84   2.0000      -0.929372       -25.2895 
  85   2.0000      -0.920732       -25.0544 
  86   2.0000      -0.918446       -24.9922 
  87   2.0000      -0.917078       -24.9550 
  88   2.0000      -0.913867       -24.8676 
  89   2.0000      -0.899099       -24.4657 
  90   2.0000      -0.889372       -24.2010 
  91   2.0000      -0.881212       -23.9790 
  92   2.0000      -0.877868       -23.8880 
  93   2.0000      -0.868433       -23.6313 
  94   2.0000      -0.865494       -23.5513 
  95   2.0000      -0.857522       -23.3344 
  96   2.0000      -0.851957       -23.1829 
  97   2.0000      -0.846734       -23.0408 
  98   2.0000      -0.834765       -22.7151 
  99   2.0000      -0.823098       -22.3976 
 100   2.0000      -0.818523       -22.2731 
 101   2.0000      -0.811227       -22.0746 
 102   2.0000      -0.803768       -21.8716 
 103   2.0000      -0.796625       -21.6773 
 104   2.0000      -0.791756       -21.5448 
 105   2.0000      -0.790802       -21.5188 
 106   2.0000      -0.786226       -21.3943 
 107   2.0000      -0.780069       -21.2268 
 108   2.0000      -0.770933       -20.9782 
 109   2.0000      -0.765800       -20.8385 
 110   2.0000      -0.756911       -20.5966 
 111   2.0000      -0.741975       -20.1902 
 112   2.0000      -0.734675       -19.9915 
 113   2.0000      -0.726980       -19.7821 
 114   2.0000      -0.723926       -19.6990 
 115   2.0000      -0.713143       -19.4056 
 116   2.0000      -0.699323       -19.0295 
 117   2.0000      -0.693402       -18.8684 
 118   2.0000      -0.689378       -18.7589 
 119   2.0000      -0.682517       -18.5722 
 120   2.0000      -0.678070       -18.4512 
 121   2.0000      -0.670740       -18.2518 
 122   2.0000      -0.665681       -18.1141 
 123   2.0000      -0.665137       -18.0993 
 124   2.0000      -0.661113       -17.9898 
 125   2.0000      -0.653456       -17.7814 
 126   2.0000      -0.643743       -17.5171 
 127   2.0000      -0.642700       -17.4888 
 128   2.0000      -0.637138       -17.3374 
 129   2.0000      -0.631219       -17.1764 
 130   2.0000      -0.628381       -17.0991 
 131   2.0000      -0.624414       -16.9912 
 132   2.0000      -0.620552       -16.8861 
 133   2.0000      -0.617814       -16.8116 
 134   2.0000      -0.606928       -16.5154 
 135   2.0000      -0.603013       -16.4088 
 136   2.0000      -0.598660       -16.2904 
 137   2.0000      -0.593830       -16.1589 
 138   2.0000      -0.588803       -16.0222 
 139   2.0000      -0.586745       -15.9661 
 140   2.0000      -0.583701       -15.8833 
 141   2.0000      -0.579798       -15.7771 
 142   2.0000      -0.577287       -15.7088 
 143   2.0000      -0.574468       -15.6321 
 144   2.0000      -0.572892       -15.5892 
 145   2.0000      -0.566249       -15.4084 
 146   2.0000      -0.564106       -15.3501 
 147   2.0000      -0.557035       -15.1577 
 148   2.0000      -0.555917       -15.1273 
 149   2.0000      -0.555235       -15.1087 
 150   2.0000      -0.552719       -15.0403 
 151   2.0000      -0.546169       -14.8620 
 152   2.0000      -0.545175       -14.8350 
 153   2.0000      -0.542568       -14.7640 
 154   2.0000      -0.541161       -14.7257 
 155   2.0000      -0.539207       -14.6726 
 156   2.0000      -0.538880       -14.6637 
 157   2.0000      -0.535934       -14.5835 
 158   2.0000      -0.534888       -14.5551 
 159   2.0000      -0.533553       -14.5187 
 160   2.0000      -0.531714       -14.4687 
 161   2.0000      -0.529227       -14.4010 
 162   2.0000      -0.527200       -14.3458 
 163   2.0000      -0.521896       -14.2015 
 164   2.0000      -0.519090       -14.1251 
 165   2.0000      -0.517223       -14.0744 
 166   2.0000      -0.516476       -14.0540 
 167   2.0000      -0.513928       -13.9847 
 168   2.0000      -0.508391       -13.8340 
 169   2.0000      -0.505500       -13.7553 
 170   2.0000      -0.503267       -13.6946 
 171   2.0000      -0.502038       -13.6611 
 172   2.0000      -0.500273       -13.6131 
 173   2.0000      -0.497033       -13.5250 
 174   2.0000      -0.496466       -13.5095 
 175   2.0000      -0.494868       -13.4660 
 176   2.0000      -0.493935       -13.4407 
 177   2.0000      -0.491635       -13.3781 
 178   2.0000      -0.490224       -13.3397 
 179   2.0000      -0.490063       -13.3353 
 180   2.0000      -0.488171       -13.2838 
 181   2.0000      -0.486485       -13.2379 
 182   2.0000      -0.485514       -13.2115 
 183   2.0000      -0.483191       -13.1483 
 184   2.0000      -0.479779       -13.0555 
 185   2.0000      -0.474402       -12.9091 
 186   2.0000      -0.473919       -12.8960 
 187   2.0000      -0.472751       -12.8642 
 188   2.0000      -0.470545       -12.8042 
 189   2.0000      -0.470138       -12.7931 
 190   2.0000      -0.467594       -12.7239 
 191   2.0000      -0.465421       -12.6647 
 192   2.0000      -0.463934       -12.6243 
 193   2.0000      -0.462578       -12.5874 
 194   2.0000      -0.461107       -12.5474 
 195   2.0000      -0.460306       -12.5256 
 196   2.0000      -0.458420       -12.4742 
 197   2.0000      -0.455600       -12.3975 
 198   2.0000      -0.453241       -12.3333 
 199   2.0000      -0.451552       -12.2874 
 200   2.0000      -0.450652       -12.2629 
 201   2.0000      -0.448249       -12.1975 
 202   2.0000      -0.443985       -12.0814 
 203   2.0000      -0.442610       -12.0440 
 204   2.0000      -0.440369       -11.9831 
 205   2.0000      -0.440088       -11.9754 
 206   2.0000      -0.433563       -11.7978 
 207   2.0000      -0.431988       -11.7550 
 208   2.0000      -0.430979       -11.7275 
 209   2.0000      -0.430640       -11.7183 
 210   2.0000      -0.428381       -11.6569 
 211   2.0000      -0.422228       -11.4894 
 212   2.0000      -0.419832       -11.4242 
 213   2.0000      -0.419014       -11.4019 
 214   2.0000      -0.416187       -11.3250 
 215   2.0000      -0.410382       -11.1671 
 216   2.0000      -0.409875       -11.1533 
 217   2.0000      -0.408776       -11.1234 
 218   2.0000      -0.407171       -11.0797 
 219   2.0000      -0.405651       -11.0383 
 220   2.0000      -0.404582       -11.0092 
 221   2.0000      -0.403816       -10.9884 
 222   2.0000      -0.401807       -10.9337 
 223   2.0000      -0.400632       -10.9017 
 224   2.0000      -0.400307       -10.8929 
 225   2.0000      -0.398214       -10.8359 
 226   2.0000      -0.397505       -10.8167 
 227   2.0000      -0.392024       -10.6675 
 228   2.0000      -0.389576       -10.6009 
 229   2.0000      -0.384312       -10.4577 
 230   2.0000      -0.373471       -10.1627 
 231   2.0000      -0.370994       -10.0953 
 232   2.0000      -0.365153        -9.9363 
 233   2.0000      -0.354714        -9.6523 
 234   2.0000      -0.351486        -9.5644 
 235   2.0000      -0.340165        -9.2564 
 236   2.0000      -0.335794        -9.1374 
 237   2.0000      -0.321257        -8.7418 
 238   2.0000      -0.314916        -8.5693 
 239   2.0000      -0.265854        -7.2343 
 240   2.0000      -0.246246        -6.7007 
 241   0.0000      -0.053483        -1.4554 
 242   0.0000      -0.016205        -0.4409 
 243   0.0000       0.031390         0.8542 
 244   0.0000       0.059787         1.6269 
 245   0.0000       0.069053         1.8790 
 246   0.0000       0.078258         2.1295 
 247   0.0000       0.083934         2.2840 
 248   0.0000       0.085383         2.3234 
 249   0.0000       0.092037         2.5044 
 250   0.0000       0.100212         2.7269 
 251   0.0000       0.107865         2.9352 
*Only the first 10 virtual orbitals were printed.

                    ********************************
                    * MULLIKEN POPULATION ANALYSIS *
                    ********************************

-----------------------
MULLIKEN ATOMIC CHARGES
-----------------------
   0 Mg:    0.822727
   1 C :   -0.263375
   2 C :   -0.540527
   3 C :   -0.349936
   4 C :   -0.292854
   5 N :   -0.421369
   6 C :    0.274277
   7 C :   -0.016551
   8 C :    0.082142
   9 C :    0.174362
  10 C :   -0.437959
  11 C :   -0.338501
  12 C :   -0.214277
  13 C :    0.379974
  14 O :   -0.428176
  15 O :   -0.275445
  16 N :   -0.404882
  17 C :    0.326280
  18 C :   -0.027961
  19 C :    0.004814
  20 C :    0.231229
  21 C :   -0.435938
  22 C :   -0.192798
  23 C :   -0.330082
  24 N :   -0.390770
  25 C :    0.180398
  26 C :   -0.044679
  27 C :   -0.064813
  28 C :    0.254035
  29 C :   -0.400236
  30 C :   -0.265563
  31 C :   -0.369380
  32 N :   -0.416691
  33 C :    0.169995
  34 C :   -0.071797
  35 C :   -0.099777
  36 C :    0.196715
  37 C :   -0.414687
  38 C :    0.162346
  39 O :   -0.378860
  40 C :    0.067722
  41 C :    0.322525
  42 O :   -0.406216
  43 O :   -0.269456
  44 C :   -0.235220
  45 C :   -0.058803
  46 C :   -0.228382
  47 C :    0.021020
  48 C :   -0.394494
  49 C :   -0.193615
  50 C :   -0.271124
  51 C :   -0.227895
  52 C :    0.044010
  53 C :   -0.443756
  54 C :   -0.228730
  55 C :   -0.246770
  56 C :   -0.230907
  57 C :    0.051904
  58 C :   -0.445281
  59 C :   -0.229313
  60 C :   -0.248558
  61 C :   -0.229426
  62 C :    0.017037
  63 C :   -0.417908
  64 C :   -0.387069
  65 H :    0.160852
  66 H :    0.173483
  67 H :    0.189462
  68 H :    0.146080
  69 H :    0.119360
  70 H :    0.141582
  71 H :    0.139127
  72 H :    0.141916
  73 H :    0.138210
  74 H :    0.143513
  75 H :    0.148920
  76 H :    0.155447
  77 H :    0.146098
  78 H :    0.160106
  79 H :    0.167912
  80 H :    0.157116
  81 H :    0.161732
  82 H :    0.174587
  83 H :    0.154100
  84 H :    0.139429
  85 H :    0.148080
  86 H :    0.126773
  87 H :    0.130433
  88 H :    0.130452
  89 H :    0.127636
  90 H :    0.128351
  91 H :    0.157245
  92 H :    0.152439
  93 H :    0.159879
  94 H :    0.147754
  95 H :    0.147473
  96 H :    0.150981
  97 H :    0.156715
  98 H :    0.141866
  99 H :    0.122783
 100 H :    0.145890
 101 H :    0.141786
 102 H :    0.154366
 103 H :    0.136249
 104 H :    0.128011
 105 H :    0.121698
 106 H :    0.117986
 107 H :    0.117467
 108 H :    0.108030
 109 H :    0.110372
 110 H :    0.075904
 111 H :    0.134351
 112 H :    0.134979
 113 H :    0.117974
 114 H :    0.106540
 115 H :    0.106174
 116 H :    0.113116
 117 H :    0.102163
 118 H :    0.106219
 119 H :    0.105586
 120 H :    0.074466
 121 H :    0.117622
 122 H :    0.133951
 123 H :    0.135327
 124 H :    0.105537
 125 H :    0.106815
 126 H :    0.107036
 127 H :    0.109718
 128 H :    0.106596
 129 H :    0.104558
 130 H :    0.075276
 131 H :    0.116952
 132 H :    0.128404
 133 H :    0.132825
 134 H :    0.124892
 135 H :    0.128416
 136 H :    0.116151
Sum of atomic charges:   -0.0000000

--------------------------------
MULLIKEN REDUCED ORBITAL CHARGES
--------------------------------
  0 Mgs       :     4.498075  s :     4.498075
      pz      :     2.130359  p :     6.423184
      px      :     2.147503
      py      :     2.145321
      dz2     :     0.045988  d :     0.256015
      dxz     :     0.018772
      dyz     :     0.079282
      dx2y2   :     0.050621
      dxy     :     0.061352

  1 C s       :     3.430526  s :     3.430526
      pz      :     0.880788  p :     2.710948
      px      :     0.905797
      py      :     0.924363
      dz2     :     0.021586  d :     0.111687
      dxz     :     0.026130
      dyz     :     0.015238
      dx2y2   :     0.028435
      dxy     :     0.020299
      f0      :     0.001077  f :     0.010213
      f+1     :     0.001476
      f-1     :     0.001471
      f+2     :     0.002319
      f-2     :     0.001425
      f+3     :     0.001222
      f-3     :     0.001223

  2 C s       :     3.282115  s :     3.282115
      pz      :     1.098351  p :     3.188373
      px      :     1.023706
      py      :     1.066316
      dz2     :     0.008741  d :     0.062768
      dxz     :     0.016722
      dyz     :     0.008624
      dx2y2   :     0.017490
      dxy     :     0.011191
      f0      :     0.000713  f :     0.007271
      f+1     :     0.000397
      f-1     :     0.001318
      f+2     :     0.000682
      f-2     :     0.001740
      f+3     :     0.001394
      f-3     :     0.001028

  3 C s       :     3.187054  s :     3.187054
      pz      :     1.025824  p :     3.087328
      px      :     0.990282
      py      :     1.071222
      dz2     :     0.020296  d :     0.068401
      dxz     :     0.014657
      dyz     :     0.006157
      dx2y2   :     0.010996
      dxy     :     0.016295
      f0      :     0.000759  f :     0.007151
      f+1     :     0.001489
      f-1     :     0.000629
      f+2     :     0.001335
      f-2     :     0.001234
      f+3     :     0.000915
      f-3     :     0.000789

  4 C s       :     3.217563  s :     3.217563
      pz      :     0.982933  p :     2.988798
      px      :     1.075836
      py      :     0.930029
      dz2     :     0.010440  d :     0.079287
      dxz     :     0.021210
      dyz     :     0.010317
      dx2y2   :     0.024393
      dxy     :     0.012927
      f0      :     0.000790  f :     0.007205
      f+1     :     0.000337
      f-1     :     0.001285
      f+2     :     0.000684
      f-2     :     0.001704
      f+3     :     0.001532
      f-3     :     0.000873

  5 N s       :     3.651964  s :     3.651964
      pz      :     1.174190  p :     3.703638
      px      :     1.330949
      py      :     1.198500
      dz2     :     0.013911  d :     0.062168
      dxz     :     0.011993
      dyz     :     0.011464
      dx2y2   :     0.012124
      dxy     :     0.012676
      f0      :     0.000417  f :     0.003599
      f+1     :     0.000415
      f-1     :     0.000649
      f+2     :     0.000667
      f-2     :     0.000696
      f+3     :     0.000369
      f-3     :     0.000386

  6 C s       :     3.157578  s :     3.157578
      pz      :     0.811390  p :     2.399339
      px      :     0.797250
      py      :     0.790699
      dz2     :     0.039919  d :     0.154813
      dxz     :     0.023624
      dyz     :     0.017523
      dx2y2   :     0.038732
      dxy     :     0.035016
      f0      :     0.001287  f :     0.013993
      f+1     :     0.001578
      f-1     :     0.002376
      f+2     :     0.002992
      f-2     :     0.001884
      f+3     :     0.001798
      f-3     :     0.002077

  7 C s       :     3.067413  s :     3.067413
      pz      :     0.939359  p :     2.822146
      px      :     0.919448
      py      :     0.963339
      dz2     :     0.030379  d :     0.119360
      dxz     :     0.024960
      dyz     :     0.020842
      dx2y2   :     0.025664
      dxy     :     0.017514
      f0      :     0.001165  f :     0.007632
      f+1     :     0.001399
      f-1     :     0.000644
      f+2     :     0.001390
      f-2     :     0.001277
      f+3     :     0.000738
      f-3     :     0.001019

  8 C s       :     3.012973  s :     3.012973
      pz      :     0.936922  p :     2.770703
      px      :     0.925386
      py      :     0.908395
      dz2     :     0.034172  d :     0.126422
      dxz     :     0.022452
      dyz     :     0.025370
      dx2y2   :     0.016415
      dxy     :     0.028013
      f0      :     0.001539  f :     0.007760
      f+1     :     0.000988
      f-1     :     0.001380
      f+2     :     0.000760
      f-2     :     0.001465
      f+3     :     0.000640
      f-3     :     0.000990

  9 C s       :     3.145567  s :     3.145567
      pz      :     0.793574  p :     2.509716
      px      :     0.833759
      py      :     0.882384
      dz2     :     0.044397  d :     0.156195
      dxz     :     0.024782
      dyz     :     0.019645
      dx2y2   :     0.031817
      dxy     :     0.035555
      f0      :     0.001915  f :     0.014159
      f+1     :     0.001600
      f-1     :     0.002415
      f+2     :     0.002033
      f-2     :     0.002895
      f+3     :     0.002081
      f-3     :     0.001221

 10 C s       :     3.311279  s :     3.311279
      pz      :     0.966772  p :     3.069808
      px      :     1.073602
      py      :     1.029434
      dz2     :     0.016720  d :     0.053743
      dxz     :     0.006907
      dyz     :     0.011966
      dx2y2   :     0.002862
      dxy     :     0.015288
      f0      :     0.000622  f :     0.003129
      f+1     :     0.000245
      f-1     :     0.001046
      f+2     :     0.000205
      f-2     :     0.000441
      f+3     :     0.000075
      f-3     :     0.000495

 11 C s       :     3.266899  s :     3.266899
      pz      :     0.994754  p :     2.974764
      px      :     0.931610
      py      :     1.048401
      dz2     :     0.020619  d :     0.091476
      dxz     :     0.020386
      dyz     :     0.012079
      dx2y2   :     0.023866
      dxy     :     0.014526
      f0      :     0.000426  f :     0.005362
      f+1     :     0.001189
      f-1     :     0.000392
      f+2     :     0.000977
      f-2     :     0.000724
      f+3     :     0.000792
      f-3     :     0.000862

 12 C s       :     3.148269  s :     3.148269
      pz      :     0.984899  p :     2.983108
      px      :     0.934929
      py      :     1.063281
      dz2     :     0.013817  d :     0.077844
      dxz     :     0.023743
      dyz     :     0.007757
      dx2y2   :     0.019696
      dxy     :     0.012832
      f0      :     0.000502  f :     0.005055
      f+1     :     0.001216
      f-1     :     0.000376
      f+2     :     0.000922
      f-2     :     0.000554
      f+3     :     0.000733
      f-3     :     0.000753

 13 C s       :     3.075750  s :     3.075750
      pz      :     0.784362  p :     2.256969
      px      :     0.759146
      py      :     0.713461
      dz2     :     0.050738  d :     0.262364
      dxz     :     0.096893
      dyz     :     0.057786
      dx2y2   :     0.018600
      dxy     :     0.038346
      f0      :     0.004314  f :     0.024944
      f+1     :     0.008290
      f-1     :     0.003803
      f+2     :     0.002299
      f-2     :     0.002245
      f+3     :     0.001515
      f-3     :     0.002477

 14 O s       :     3.828113  s :     3.828113
      pz      :     1.354508  p :     4.567713
      px      :     1.779923
      py      :     1.433283
      dz2     :     0.010789  d :     0.030449
      dxz     :     0.008020
      dyz     :     0.010313
      dx2y2   :     0.000750
      dxy     :     0.000577
      f0      :     0.000583  f :     0.001901
      f+1     :     0.000554
      f-1     :     0.000566
      f+2     :     0.000095
      f-2     :     0.000088
      f+3     :     0.000009
      f-3     :     0.000007

 15 O s       :     3.768348  s :     3.768348
      pz      :     1.560601  p :     4.466285
      px      :     1.189812
      py      :     1.715872
      dz2     :     0.006220  d :     0.038757
      dxz     :     0.015701
      dyz     :     0.003842
      dx2y2   :     0.007159
      dxy     :     0.005834
      f0      :     0.000129  f :     0.002054
      f+1     :     0.000374
      f-1     :     0.000035
      f+2     :     0.000501
      f-2     :     0.000225
      f+3     :     0.000431
      f-3     :     0.000359

 16 N s       :     3.639709  s :     3.639709
      pz      :     1.307891  p :     3.701276
      px      :     1.135554
      py      :     1.257830
      dz2     :     0.009282  d :     0.060276
      dxz     :     0.011997
      dyz     :     0.010376
      dx2y2   :     0.014907
      dxy     :     0.013714
      f0      :     0.000390  f :     0.003622
      f+1     :     0.000639
      f-1     :     0.000272
      f+2     :     0.000404
      f-2     :     0.000742
      f+3     :     0.000507
      f-3     :     0.000668

 17 C s       :     3.085074  s :     3.085074
      pz      :     0.813704  p :     2.403171
      px      :     0.747175
      py      :     0.842292
      dz2     :     0.034900  d :     0.170776
      dxz     :     0.028359
      dyz     :     0.030733
      dx2y2   :     0.042564
      dxy     :     0.034220
      f0      :     0.001430  f :     0.014700
      f+1     :     0.002507
      f-1     :     0.001270
      f+2     :     0.001360
      f-2     :     0.003421
      f+3     :     0.002203
      f-3     :     0.002509

 18 C s       :     3.224909  s :     3.224909
      pz      :     0.853794  p :     2.642126
      px      :     0.897131
      py      :     0.891201
      dz2     :     0.030312  d :     0.150896
      dxz     :     0.031386
      dyz     :     0.023422
      dx2y2   :     0.039718
      dxy     :     0.026059
      f0      :     0.001002  f :     0.010030
      f+1     :     0.001317
      f-1     :     0.001283
      f+2     :     0.001574
      f-2     :     0.002032
      f+3     :     0.002007
      f-3     :     0.000816

 19 C s       :     3.209888  s :     3.209888
      pz      :     0.925667  p :     2.627601
      px      :     0.894141
      py      :     0.807794
      dz2     :     0.024271  d :     0.147367
      dxz     :     0.029143
      dyz     :     0.024020
      dx2y2   :     0.033437
      dxy     :     0.036496
      f0      :     0.001065  f :     0.010330
      f+1     :     0.001094
      f-1     :     0.001522
      f+2     :     0.001623
      f-2     :     0.001684
      f+3     :     0.001940
      f-3     :     0.001401

 20 C s       :     3.096295  s :     3.096295
      pz      :     0.879551  p :     2.494045
      px      :     0.826620
      py      :     0.787874
      dz2     :     0.029238  d :     0.164011
      dxz     :     0.028649
      dyz     :     0.031095
      dx2y2   :     0.043953
      dxy     :     0.031076
      f0      :     0.001528  f :     0.014420
      f+1     :     0.002362
      f-1     :     0.001088
      f+2     :     0.001631
      f-2     :     0.002597
      f+3     :     0.001908
      f-3     :     0.003308

 21 C s       :     3.372615  s :     3.372615
      pz      :     0.973028  p :     3.010524
      px      :     0.977568
      py      :     1.059928
      dz2     :     0.017944  d :     0.049778
      dxz     :     0.004442
      dyz     :     0.006806
      dx2y2   :     0.013618
      dxy     :     0.006968
      f0      :     0.000358  f :     0.003020
      f+1     :     0.000664
      f-1     :     0.000435
      f+2     :     0.000540
      f-2     :     0.000286
      f+3     :     0.000148
      f-3     :     0.000589

 22 C s       :     3.244317  s :     3.244317
      pz      :     0.957321  p :     2.858518
      px      :     1.010246
      py      :     0.890951
      dz2     :     0.016008  d :     0.082948
      dxz     :     0.020399
      dyz     :     0.023538
      dx2y2   :     0.011699
      dxy     :     0.011304
      f0      :     0.001340  f :     0.007015
      f+1     :     0.001043
      f-1     :     0.001040
      f+2     :     0.000893
      f-2     :     0.001325
      f+3     :     0.000554
      f-3     :     0.000820

 23 C s       :     3.282096  s :     3.282096
      pz      :     0.937638  p :     2.993807
      px      :     1.018624
      py      :     1.037545
      dz2     :     0.010513  d :     0.049393
      dxz     :     0.015292
      dyz     :     0.013748
      dx2y2   :     0.004789
      dxy     :     0.005051
      f0      :     0.001184  f :     0.004787
      f+1     :     0.000927
      f-1     :     0.000567
      f+2     :     0.000492
      f-2     :     0.001033
      f+3     :     0.000452
      f-3     :     0.000132

 24 N s       :     3.641518  s :     3.641518
      pz      :     1.212195  p :     3.682619
      px      :     1.280968
      py      :     1.189455
      dz2     :     0.014340  d :     0.062977
      dxz     :     0.010935
      dyz     :     0.010879
      dx2y2   :     0.012886
      dxy     :     0.013937
      f0      :     0.000378  f :     0.003656
      f+1     :     0.000503
      f-1     :     0.000592
      f+2     :     0.000636
      f-2     :     0.000657
      f+3     :     0.000414
      f-3     :     0.000476

 25 C s       :     3.106836  s :     3.106836
      pz      :     0.867080  p :     2.536543
      px      :     0.850104
      py      :     0.819360
      dz2     :     0.035160  d :     0.161661
      dxz     :     0.027539
      dyz     :     0.021425
      dx2y2   :     0.038526
      dxy     :     0.039012
      f0      :     0.001057  f :     0.014561
      f+1     :     0.001887
      f-1     :     0.002529
      f+2     :     0.002938
      f-2     :     0.001995
      f+3     :     0.001758
      f-3     :     0.002397

 26 C s       :     3.208297  s :     3.208297
      pz      :     0.934148  p :     2.673732
      px      :     0.905084
      py      :     0.834501
      dz2     :     0.030007  d :     0.152527
      dxz     :     0.025252
      dyz     :     0.023107
      dx2y2   :     0.042439
      dxy     :     0.031722
      f0      :     0.000959  f :     0.010123
      f+1     :     0.001351
      f-1     :     0.001416
      f+2     :     0.001266
      f-2     :     0.001805
      f+3     :     0.001295
      f-3     :     0.002031

 27 C s       :     3.295944  s :     3.295944
      pz      :     0.851276  p :     2.608690
      px      :     0.813969
      py      :     0.943444
      dz2     :     0.030601  d :     0.149946
      dxz     :     0.031070
      dyz     :     0.019198
      dx2y2   :     0.033079
      dxy     :     0.035997
      f0      :     0.001314  f :     0.010232
      f+1     :     0.001455
      f-1     :     0.001142
      f+2     :     0.001098
      f-2     :     0.002301
      f+3     :     0.001496
      f-3     :     0.001427

 28 C s       :     3.095389  s :     3.095389
      pz      :     0.865132  p :     2.481269
      px      :     0.797092
      py      :     0.819044
      dz2     :     0.035182  d :     0.154928
      dxz     :     0.026463
      dyz     :     0.022120
      dx2y2   :     0.036930
      dxy     :     0.034233
      f0      :     0.001735  f :     0.014379
      f+1     :     0.001625
      f-1     :     0.002141
      f+2     :     0.001991
      f-2     :     0.003065
      f+3     :     0.002320
      f-3     :     0.001501

 29 C s       :     3.346110  s :     3.346110
      pz      :     1.062688  p :     3.001016
      px      :     1.008368
      py      :     0.929960
      dz2     :     0.011127  d :     0.050116
      dxz     :     0.006596
      dyz     :     0.008782
      dx2y2   :     0.016425
      dxy     :     0.007186
      f0      :     0.000869  f :     0.002994
      f+1     :     0.000191
      f-1     :     0.000192
      f+2     :     0.000080
      f-2     :     0.000277
      f+3     :     0.000760
      f-3     :     0.000625

 30 C s       :     3.312730  s :     3.312730
      pz      :     0.915555  p :     2.855099
      px      :     0.916509
      py      :     1.023034
      dz2     :     0.025118  d :     0.092540
      dxz     :     0.025536
      dyz     :     0.014316
      dx2y2   :     0.014609
      dxy     :     0.012961
      f0      :     0.000990  f :     0.005195
      f+1     :     0.001121
      f-1     :     0.000561
      f+2     :     0.000853
      f-2     :     0.000909
      f+3     :     0.000231
      f-3     :     0.000529

 31 C s       :     3.262267  s :     3.262267
      pz      :     0.948455  p :     3.050840
      px      :     1.064055
      py      :     1.038330
      dz2     :     0.010868  d :     0.053163
      dxz     :     0.020076
      dyz     :     0.007259
      dx2y2   :     0.011020
      dxy     :     0.003941
      f0      :     0.000764  f :     0.003111
      f+1     :     0.000500
      f-1     :     0.000495
      f+2     :     0.000678
      f-2     :     0.000332
      f+3     :     0.000093
      f-3     :     0.000249

 32 N s       :     3.668635  s :     3.668635
      pz      :     1.298212  p :     3.683304
      px      :     1.119329
      py      :     1.265763
      dz2     :     0.008887  d :     0.061100
      dxz     :     0.012805
      dyz     :     0.010294
      dx2y2   :     0.015504
      dxy     :     0.013610
      f0      :     0.000384  f :     0.003652
      f+1     :     0.000635
      f-1     :     0.000296
      f+2     :     0.000420
      f-2     :     0.000728
      f+3     :     0.000485
      f-3     :     0.000704

 33 C s       :     3.121904  s :     3.121904
      pz      :     0.878990  p :     2.540931
      px      :     0.811863
      py      :     0.850078
      dz2     :     0.030529  d :     0.152965
      dxz     :     0.025693
      dyz     :     0.026469
      dx2y2   :     0.034791
      dxy     :     0.035483
      f0      :     0.001289  f :     0.014205
      f+1     :     0.002289
      f-1     :     0.001306
      f+2     :     0.001431
      f-2     :     0.003230
      f+3     :     0.002439
      f-3     :     0.002219

 34 C s       :     3.338649  s :     3.338649
      pz      :     0.854636  p :     2.575908
      px      :     0.852624
      py      :     0.868647
      dz2     :     0.022673  d :     0.147215
      dxz     :     0.032970
      dyz     :     0.026455
      dx2y2   :     0.038228
      dxy     :     0.026889
      f0      :     0.000867  f :     0.010025
      f+1     :     0.001437
      f-1     :     0.001494
      f+2     :     0.001779
      f-2     :     0.001717
      f+3     :     0.001719
      f-3     :     0.001012

 35 C s       :     3.228487  s :     3.228487
      pz      :     1.004785  p :     2.728171
      px      :     0.840475
      py      :     0.882912
      dz2     :     0.024790  d :     0.132187
      dxz     :     0.024566
      dyz     :     0.016014
      dx2y2   :     0.024647
      dxy     :     0.042170
      f0      :     0.001121  f :     0.010931
      f+1     :     0.001382
      f-1     :     0.001174
      f+2     :     0.001349
      f-2     :     0.001831
      f+3     :     0.002105
      f-3     :     0.001969

 36 C s       :     3.148163  s :     3.148163
      pz      :     0.841134  p :     2.464042
      px      :     0.865360
      py      :     0.757549
      dz2     :     0.030261  d :     0.174925
      dxz     :     0.029036
      dyz     :     0.033832
      dx2y2   :     0.049149
      dxy     :     0.032647
      f0      :     0.001730  f :     0.016155
      f+1     :     0.002170
      f-1     :     0.001471
      f+2     :     0.001610
      f-2     :     0.002844
      f+3     :     0.002530
      f-3     :     0.003799

 37 C s       :     3.361135  s :     3.361135
      pz      :     0.962220  p :     3.003187
      px      :     0.989948
      py      :     1.051019
      dz2     :     0.010541  d :     0.047376
      dxz     :     0.007253
      dyz     :     0.012249
      dx2y2   :     0.010239
      dxy     :     0.007094
      f0      :     0.000170  f :     0.002988
      f+1     :     0.000290
      f-1     :     0.000258
      f+2     :     0.001071
      f-2     :     0.000848
      f+3     :     0.000315
      f-3     :     0.000037

 38 C s       :     3.145031  s :     3.145031
      pz      :     0.784107  p :     2.478065
      px      :     0.900810
      py      :     0.793148
      dz2     :     0.038409  d :     0.196319
      dxz     :     0.041153
      dyz     :     0.027653
      dx2y2   :     0.042290
      dxy     :     0.046814
      f0      :     0.001658  f :     0.018238
      f+1     :     0.001008
      f-1     :     0.003948
      f+2     :     0.002066
      f-2     :     0.004287
      f+3     :     0.003017
      f-3     :     0.002254

 39 O s       :     3.820311  s :     3.820311
      pz      :     1.412991  p :     4.526394
      px      :     1.709080
      py      :     1.404323
      dz2     :     0.007314  d :     0.030374
      dxz     :     0.003275
      dyz     :     0.008162
      dx2y2   :     0.005743
      dxy     :     0.005880
      f0      :     0.000154  f :     0.001782
      f+1     :     0.000035
      f-1     :     0.000506
      f+2     :     0.000302
      f-2     :     0.000306
      f+3     :     0.000262
      f-3     :     0.000217

 40 C s       :     2.962254  s :     2.962254
      pz      :     0.935597  p :     2.856138
      px      :     1.032748
      py      :     0.887793
      dz2     :     0.017202  d :     0.107222
      dxz     :     0.023652
      dyz     :     0.023356
      dx2y2   :     0.024883
      dxy     :     0.018129
      f0      :     0.000456  f :     0.006665
      f+1     :     0.000473
      f-1     :     0.001334
      f+2     :     0.001695
      f-2     :     0.001144
      f+3     :     0.000867
      f-3     :     0.000696

 41 C s       :     3.097983  s :     3.097983
      pz      :     0.754880  p :     2.292754
      px      :     0.718020
      py      :     0.819854
      dz2     :     0.057186  d :     0.261550
      dxz     :     0.050267
      dyz     :     0.076611
      dx2y2   :     0.047362
      dxy     :     0.030124
      f0      :     0.004075  f :     0.025188
      f+1     :     0.003677
      f-1     :     0.005595
      f+2     :     0.003519
      f-2     :     0.003802
      f+3     :     0.002376
      f-3     :     0.002145

 42 O s       :     3.821278  s :     3.821278
      pz      :     1.357265  p :     4.552655
      px      :     1.502677
      py      :     1.692714
      dz2     :     0.010572  d :     0.030380
      dxz     :     0.008631
      dyz     :     0.007026
      dx2y2   :     0.001917
      dxy     :     0.002235
      f0      :     0.000589  f :     0.001902
      f+1     :     0.000396
      f-1     :     0.000344
      f+2     :     0.000229
      f-2     :     0.000247
      f+3     :     0.000042
      f-3     :     0.000055

 43 O s       :     3.766211  s :     3.766211
      pz      :     1.607823  p :     4.460930
      px      :     1.555796
      py      :     1.297311
      dz2     :     0.005613  d :     0.040198
      dxz     :     0.006518
      dyz     :     0.012068
      dx2y2   :     0.007801
      dxy     :     0.008197
      f0      :     0.000179  f :     0.002117
      f+1     :     0.000166
      f-1     :     0.000254
      f+2     :     0.000332
      f-2     :     0.000385
      f+3     :     0.000412
      f-3     :     0.000390

 44 C s       :     3.265655  s :     3.265655
      pz      :     1.007763  p :     2.878552
      px      :     1.101071
      py      :     0.769717
      dz2     :     0.018122  d :     0.083833
      dxz     :     0.013115
      dyz     :     0.017335
      dx2y2   :     0.012820
      dxy     :     0.022442
      f0      :     0.000534  f :     0.007180
      f+1     :     0.000433
      f-1     :     0.001607
      f+2     :     0.000923
      f-2     :     0.001307
      f+3     :     0.000935
      f-3     :     0.001442

 45 C s       :     3.203227  s :     3.203227
      pz      :     0.871245  p :     2.726822
      px      :     0.775523
      py      :     1.080054
      dz2     :     0.019594  d :     0.119643
      dxz     :     0.027129
      dyz     :     0.028955
      dx2y2   :     0.022325
      dxy     :     0.021641
      f0      :     0.000597  f :     0.009112
      f+1     :     0.002448
      f-1     :     0.000076
      f+2     :     0.002358
      f-2     :     0.001795
      f+3     :     0.000659
      f-3     :     0.001179

 46 C s       :     3.169013  s :     3.169013
      pz      :     1.016291  p :     2.961812
      px      :     0.974215
      py      :     0.971306
      dz2     :     0.006092  d :     0.090419
      dxz     :     0.018036
      dyz     :     0.022192
      dx2y2   :     0.028852
      dxy     :     0.015247
      f0      :     0.000800  f :     0.007138
      f+1     :     0.000955
      f-1     :     0.000258
      f+2     :     0.000916
      f-2     :     0.001691
      f+3     :     0.000984
      f-3     :     0.001533

 47 C s       :     3.164141  s :     3.164141
      pz      :     0.868448  p :     2.661760
      px      :     0.920174
      py      :     0.873138
      dz2     :     0.015368  d :     0.143434
      dxz     :     0.025881
      dyz     :     0.032121
      dx2y2   :     0.044759
      dxy     :     0.025306
      f0      :     0.000975  f :     0.009646
      f+1     :     0.001007
      f-1     :     0.001053
      f+2     :     0.001026
      f-2     :     0.002150
      f+3     :     0.001563
      f-3     :     0.001874

 48 C s       :     3.297570  s :     3.297570
      pz      :     1.030540  p :     3.044978
      px      :     1.081311
      py      :     0.933127
      dz2     :     0.006128  d :     0.049069
      dxz     :     0.009779
      dyz     :     0.013282
      dx2y2   :     0.009425
      dxy     :     0.010454
      f0      :    -0.000045  f :     0.002877
      f+1     :     0.000136
      f-1     :     0.000567
      f+2     :     0.001195
      f-2     :     0.000360
      f+3     :     0.000468
      f-3     :     0.000196

 49 C s       :     3.198357  s :     3.198357
      pz      :     0.940192  p :     2.899986
      px      :     0.898120
      py      :     1.061674
      dz2     :     0.013249  d :     0.090109
      dxz     :     0.018659
      dyz     :     0.024603
      dx2y2   :     0.018928
      dxy     :     0.014670
      f0      :     0.000116  f :     0.005164
      f+1     :     0.001365
      f-1     :    -0.000024
      f+2     :     0.001629
      f-2     :     0.000950
      f+3     :     0.000392
      f-3     :     0.000736

 50 C s       :     3.222343  s :     3.222343
      pz      :     0.963182  p :     2.951679
      px      :     0.948506
      py      :     1.039990
      dz2     :     0.013442  d :     0.091777
      dxz     :     0.019767
      dyz     :     0.026514
      dx2y2   :     0.018520
      dxy     :     0.013533
      f0      :     0.000130  f :     0.005326
      f+1     :     0.001467
      f-1     :    -0.000018
      f+2     :     0.001602
      f-2     :     0.001062
      f+3     :     0.000420
      f-3     :     0.000663

 51 C s       :     3.193286  s :     3.193286
      pz      :     0.965193  p :     2.939901
      px      :     0.931403
      py      :     1.043305
      dz2     :     0.012623  d :     0.089472
      dxz     :     0.018054
      dyz     :     0.026876
      dx2y2   :     0.018408
      dxy     :     0.013511
      f0      :     0.000138  f :     0.005236
      f+1     :     0.001368
      f-1     :     0.000004
      f+2     :     0.001584
      f-2     :     0.000980
      f+3     :     0.000422
      f-3     :     0.000740

 52 C s       :     3.068812  s :     3.068812
      pz      :     0.905928  p :     2.741241
      px      :     0.904219
      py      :     0.931094
      dz2     :     0.021341  d :     0.138311
      dxz     :     0.032596
      dyz     :     0.034658
      dx2y2   :     0.029414
      dxy     :     0.020302
      f0      :     0.000488  f :     0.007625
      f+1     :     0.001464
      f-1     :     0.000734
      f+2     :     0.001753
      f-2     :     0.001551
      f+3     :     0.000743
      f-3     :     0.000892

 53 C s       :     3.301928  s :     3.301928
      pz      :     1.026129  p :     3.087825
      px      :     1.080388
      py      :     0.981308
      dz2     :     0.007980  d :     0.051058
      dxz     :     0.013935
      dyz     :     0.008870
      dx2y2   :     0.014570
      dxy     :     0.005702
      f0      :     0.000067  f :     0.002945
      f+1     :     0.000015
      f-1     :     0.000598
      f+2     :     0.001475
      f-2     :     0.000478
      f+3     :     0.000190
      f-3     :     0.000122

 54 C s       :     3.199376  s :     3.199376
      pz      :     0.964752  p :     2.933982
      px      :     0.932286
      py      :     1.036944
      dz2     :     0.011979  d :     0.090134
      dxz     :     0.019708
      dyz     :     0.026666
      dx2y2   :     0.017083
      dxy     :     0.014697
      f0      :     0.000269  f :     0.005238
      f+1     :     0.001257
      f-1     :     0.000043
      f+2     :     0.001502
      f-2     :     0.000976
      f+3     :     0.000481
      f-3     :     0.000708

 55 C s       :     3.192306  s :     3.192306
      pz      :     0.967191  p :     2.958063
      px      :     0.963062
      py      :     1.027810
      dz2     :     0.013179  d :     0.091090
      dxz     :     0.020293
      dyz     :     0.026298
      dx2y2   :     0.016889
      dxy     :     0.014429
      f0      :     0.000323  f :     0.005311
      f+1     :     0.001252
      f-1     :     0.000085
      f+2     :     0.001533
      f-2     :     0.001017
      f+3     :     0.000479
      f-3     :     0.000621

 56 C s       :     3.200347  s :     3.200347
      pz      :     0.962003  p :     2.935199
      px      :     0.939437
      py      :     1.033759
      dz2     :     0.012381  d :     0.090122
      dxz     :     0.019125
      dyz     :     0.027769
      dx2y2   :     0.017828
      dxy     :     0.013019
      f0      :     0.000383  f :     0.005238
      f+1     :     0.001134
      f-1     :     0.000109
      f+2     :     0.001414
      f-2     :     0.001033
      f+3     :     0.000555
      f-3     :     0.000611

 57 C s       :     3.063085  s :     3.063085
      pz      :     0.908988  p :     2.738997
      px      :     0.901828
      py      :     0.928181
      dz2     :     0.021322  d :     0.138389
      dxz     :     0.030587
      dyz     :     0.035057
      dx2y2   :     0.028849
      dxy     :     0.022575
      f0      :     0.000668  f :     0.007625
      f+1     :     0.001198
      f-1     :     0.000896
      f+2     :     0.001724
      f-2     :     0.001291
      f+3     :     0.000815
      f-3     :     0.001034

 58 C s       :     3.301982  s :     3.301982
      pz      :     1.037164  p :     3.089221
      px      :     1.062300
      py      :     0.989757
      dz2     :     0.008045  d :     0.051134
      dxz     :     0.010637
      dyz     :     0.011000
      dx2y2   :     0.014786
      dxy     :     0.006667
      f0      :     0.000014  f :     0.002945
      f+1     :     0.000221
      f-1     :     0.000554
      f+2     :     0.001035
      f-2     :     0.000594
      f+3     :     0.000164
      f-3     :     0.000362

 59 C s       :     3.199946  s :     3.199946
      pz      :     0.965280  p :     2.934070
      px      :     0.949380
      py      :     1.019410
      dz2     :     0.011986  d :     0.090061
      dxz     :     0.021067
      dyz     :     0.025741
      dx2y2   :     0.014695
      dxy     :     0.016572
      f0      :     0.000609  f :     0.005236
      f+1     :     0.000864
      f-1     :     0.000295
      f+2     :     0.001098
      f-2     :     0.001099
      f+3     :     0.000752
      f-3     :     0.000521

 60 C s       :     3.198960  s :     3.198960
      pz      :     0.967368  p :     2.952924
      px      :     0.963362
      py      :     1.022194
      dz2     :     0.013594  d :     0.091350
      dxz     :     0.021898
      dyz     :     0.024754
      dx2y2   :     0.015275
      dxy     :     0.015830
      f0      :     0.000692  f :     0.005324
      f+1     :     0.000790
      f-1     :     0.000419
      f+2     :     0.001118
      f-2     :     0.001078
      f+3     :     0.000736
      f-3     :     0.000491

 61 C s       :     3.199165  s :     3.199165
      pz      :     0.960645  p :     2.934785
      px      :     0.951718
      py      :     1.022422
      dz2     :     0.013219  d :     0.090261
      dxz     :     0.020400
      dyz     :     0.025119
      dx2y2   :     0.013326
      dxy     :     0.018197
      f0      :     0.000711  f :     0.005216
      f+1     :     0.000704
      f-1     :     0.000452
      f+2     :     0.001190
      f-2     :     0.000878
      f+3     :     0.000712
      f-3     :     0.000570

 62 C s       :     3.080207  s :     3.080207
      pz      :     0.907231  p :     2.753483
      px      :     0.914607
      py      :     0.931644
      dz2     :     0.028082  d :     0.141572
      dxz     :     0.029042
      dyz     :     0.031884
      dx2y2   :     0.023793
      dxy     :     0.028771
      f0      :     0.001172  f :     0.007701
      f+1     :     0.000805
      f-1     :     0.001186
      f+2     :     0.001305
      f-2     :     0.001408
      f+3     :     0.001066
      f-3     :     0.000759

 63 C s       :     3.285515  s :     3.285515
      pz      :     1.020637  p :     3.076952
      px      :     1.072990
      py      :     0.983324
      dz2     :     0.013719  d :     0.052437
      dxz     :     0.008087
      dyz     :     0.007388
      dx2y2   :     0.009250
      dxy     :     0.013994
      f0      :     0.000229  f :     0.003005
      f+1     :     0.000185
      f-1     :     0.000764
      f+2     :     0.000511
      f-2     :     0.000648
      f+3     :     0.000421
      f-3     :     0.000246

 64 C s       :     3.279015  s :     3.279015
      pz      :     0.970928  p :     3.051564
      px      :     1.025079
      py      :     1.055557
      dz2     :     0.010121  d :     0.053436
      dxz     :     0.007381
      dyz     :     0.020701
      dx2y2   :     0.010030
      dxy     :     0.005203
      f0      :     0.000601  f :     0.003055
      f+1     :     0.000399
      f-1     :     0.000369
      f+2     :     0.000845
      f-2     :     0.000556
      f+3     :     0.000165
      f-3     :     0.000119

 65 H s       :     0.815160  s :     0.815160
      pz      :     0.009759  p :     0.023988
      px      :     0.009769
      py      :     0.004460

 66 H s       :     0.802530  s :     0.802530
      pz      :     0.005566  p :     0.023987
      px      :     0.006609
      py      :     0.011813

 67 H s       :     0.787521  s :     0.787521
      pz      :     0.008444  p :     0.023017
      px      :     0.010345
      py      :     0.004228

 68 H s       :     0.830920  s :     0.830920
      pz      :     0.004720  p :     0.022999
      px      :     0.004212
      py      :     0.014067

 69 H s       :     0.857797  s :     0.857797
      pz      :     0.004272  p :     0.022843
      px      :     0.011993
      py      :     0.006578

 70 H s       :     0.837211  s :     0.837211
      pz      :     0.004253  p :     0.021207
      px      :     0.008739
      py      :     0.008214

 71 H s       :     0.839355  s :     0.839355
      pz      :     0.010298  p :     0.021519
      px      :     0.004194
      py      :     0.007027

 72 H s       :     0.836771  s :     0.836771
      pz      :     0.004153  p :     0.021313
      px      :     0.010555
      py      :     0.006604

 73 H s       :     0.838985  s :     0.838985
      pz      :     0.012356  p :     0.022805
      px      :     0.004573
      py      :     0.005876

 74 H s       :     0.834892  s :     0.834892
      pz      :     0.004658  p :     0.021595
      px      :     0.003984
      py      :     0.012953

 75 H s       :     0.828615  s :     0.828615
      pz      :     0.011710  p :     0.022465
      px      :     0.004859
      py      :     0.005896

 76 H s       :     0.822568  s :     0.822568
      pz      :     0.004783  p :     0.021985
      px      :     0.004055
      py      :     0.013147

 77 H s       :     0.831923  s :     0.831923
      pz      :     0.004703  p :     0.021979
      px      :     0.012006
      py      :     0.005269

 78 H s       :     0.818126  s :     0.818126
      pz      :     0.004253  p :     0.021768
      px      :     0.004196
      py      :     0.013319

 79 H s       :     0.810725  s :     0.810725
      pz      :     0.011778  p :     0.021363
      px      :     0.004397
      py      :     0.005189

 80 H s       :     0.820347  s :     0.820347
      pz      :     0.007658  p :     0.022536
      px      :     0.008277
      py      :     0.006601

 81 H s       :     0.816372  s :     0.816372
      pz      :     0.004302  p :     0.021896
      px      :     0.006194
      py      :     0.011400

 82 H s       :     0.803059  s :     0.803059
      pz      :     0.008536  p :     0.022354
      px      :     0.007868
      py      :     0.005951

 83 H s       :     0.824622  s :     0.824622
      pz      :     0.004869  p :     0.021278
      px      :     0.005684
      py      :     0.010724

 84 H s       :     0.838298  s :     0.838298
      pz      :     0.006089  p :     0.022273
      px      :     0.011896
      py      :     0.004288

 85 H s       :     0.830664  s :     0.830664
      pz      :     0.012514  p :     0.021256
      px      :     0.004446
      py      :     0.004296

 86 H s       :     0.851212  s :     0.851212
      pz      :     0.004304  p :     0.022015
      px      :     0.005090
      py      :     0.012621

 87 H s       :     0.847368  s :     0.847368
      pz      :     0.005948  p :     0.022199
      px      :     0.010423
      py      :     0.005828

 88 H s       :     0.848315  s :     0.848315
      pz      :     0.007575  p :     0.021233
      px      :     0.009470
      py      :     0.004188

 89 H s       :     0.851117  s :     0.851117
      pz      :     0.004192  p :     0.021247
      px      :     0.004611
      py      :     0.012444

 90 H s       :     0.850306  s :     0.850306
      pz      :     0.006322  p :     0.021343
      px      :     0.009423
      py      :     0.005597

 91 H s       :     0.821481  s :     0.821481
      pz      :     0.008749  p :     0.021274
      px      :     0.004705
      py      :     0.007819

 92 H s       :     0.825855  s :     0.825855
      pz      :     0.006144  p :     0.021707
      px      :     0.005204
      py      :     0.010359

 93 H s       :     0.818803  s :     0.818803
      pz      :     0.005536  p :     0.021318
      px      :     0.010959
      py      :     0.004823

 94 H s       :     0.828866  s :     0.828866
      pz      :     0.008062  p :     0.023380
      px      :     0.011171
      py      :     0.004147

 95 H s       :     0.832284  s :     0.832284
      pz      :     0.011813  p :     0.020242
      px      :     0.005468
      py      :     0.002962

 96 H s       :     0.828757  s :     0.828757
      pz      :     0.003964  p :     0.020263
      px      :     0.010524
      py      :     0.005774

 97 H s       :     0.822948  s :     0.822948
      pz      :     0.006473  p :     0.020337
      px      :     0.008171
      py      :     0.005692

 98 H s       :     0.837202  s :     0.837202
      pz      :     0.008113  p :     0.020932
      px      :     0.003346
      py      :     0.009473

 99 H s       :     0.854714  s :     0.854714
      pz      :     0.007238  p :     0.022503
      px      :     0.003682
      py      :     0.011584

100 H s       :     0.831484  s :     0.831484
      pz      :     0.007402  p :     0.022626
      px      :     0.004422
      py      :     0.010802

101 H s       :     0.836736  s :     0.836736
      pz      :     0.007261  p :     0.021478
      px      :     0.004627
      py      :     0.009590

102 H s       :     0.823811  s :     0.823811
      pz      :     0.009472  p :     0.021823
      px      :     0.007952
      py      :     0.004399

103 H s       :     0.841187  s :     0.841187
      pz      :     0.005657  p :     0.022564
      px      :     0.012135
      py      :     0.004771

104 H s       :     0.850464  s :     0.850464
      pz      :     0.008396  p :     0.021525
      px      :     0.004174
      py      :     0.008955

105 H s       :     0.856493  s :     0.856493
      pz      :     0.007175  p :     0.021810
      px      :     0.004101
      py      :     0.010534

106 H s       :     0.859860  s :     0.859860
      pz      :     0.008725  p :     0.022154
      px      :     0.004230
      py      :     0.009200

107 H s       :     0.860603  s :     0.860603
      pz      :     0.007222  p :     0.021930
      px      :     0.004228
      py      :     0.010481

108 H s       :     0.870195  s :     0.870195
      pz      :     0.008899  p :     0.021775
      px      :     0.004212
      py      :     0.008664

109 H s       :     0.868186  s :     0.868186
      pz      :     0.006839  p :     0.021442
      px      :     0.004115
      py      :     0.010487

110 H s       :     0.902108  s :     0.902108
      pz      :     0.007110  p :     0.021988
      px      :     0.004141
      py      :     0.010738

111 H s       :     0.843575  s :     0.843575
      pz      :     0.008455  p :     0.022074
      px      :     0.009279
      py      :     0.004340

112 H s       :     0.842971  s :     0.842971
      pz      :     0.006917  p :     0.022050
      px      :     0.010847
      py      :     0.004286

113 H s       :     0.860746  s :     0.860746
      pz      :     0.006207  p :     0.021280
      px      :     0.004190
      py      :     0.010883

114 H s       :     0.871698  s :     0.871698
      pz      :     0.008372  p :     0.021762
      px      :     0.004564
      py      :     0.008825

115 H s       :     0.872389  s :     0.872389
      pz      :     0.007202  p :     0.021437
      px      :     0.004108
      py      :     0.010128

116 H s       :     0.864076  s :     0.864076
      pz      :     0.008093  p :     0.022807
      px      :     0.005073
      py      :     0.009641

117 H s       :     0.876349  s :     0.876349
      pz      :     0.007682  p :     0.021488
      px      :     0.004089
      py      :     0.009717

118 H s       :     0.872022  s :     0.872022
      pz      :     0.008031  p :     0.021759
      px      :     0.005000
      py      :     0.008728

119 H s       :     0.872961  s :     0.872961
      pz      :     0.007390  p :     0.021453
      px      :     0.004150
      py      :     0.009912

120 H s       :     0.903542  s :     0.903542
      pz      :     0.007588  p :     0.021992
      px      :     0.004226
      py      :     0.010177

121 H s       :     0.861093  s :     0.861093
      pz      :     0.006628  p :     0.021286
      px      :     0.004326
      py      :     0.010332

122 H s       :     0.843982  s :     0.843982
      pz      :     0.009780  p :     0.022068
      px      :     0.007410
      py      :     0.004878

123 H s       :     0.842619  s :     0.842619
      pz      :     0.005728  p :     0.022054
      px      :     0.011623
      py      :     0.004703

124 H s       :     0.872705  s :     0.872705
      pz      :     0.007445  p :     0.021758
      px      :     0.006187
      py      :     0.008126

125 H s       :     0.871742  s :     0.871742
      pz      :     0.007681  p :     0.021443
      px      :     0.004230
      py      :     0.009532

126 H s       :     0.870855  s :     0.870855
      pz      :     0.006888  p :     0.022108
      px      :     0.006672
      py      :     0.008548

127 H s       :     0.868250  s :     0.868250
      pz      :     0.008408  p :     0.022032
      px      :     0.004355
      py      :     0.009269

128 H s       :     0.872018  s :     0.872018
      pz      :     0.006312  p :     0.021386
      px      :     0.006237
      py      :     0.008837

129 H s       :     0.873803  s :     0.873803
      pz      :     0.008608  p :     0.021639
      px      :     0.004206
      py      :     0.008825

130 H s       :     0.902801  s :     0.902801
      pz      :     0.006234  p :     0.021924
      px      :     0.006144
      py      :     0.009546

131 H s       :     0.861847  s :     0.861847
      pz      :     0.005432  p :     0.021200
      px      :     0.006174
      py      :     0.009595

132 H s       :     0.850227  s :     0.850227
      pz      :     0.004677  p :     0.021369
      px      :     0.011492
      py      :     0.005200

133 H s       :     0.845334  s :     0.845334
      pz      :     0.011236  p :     0.021841
      px      :     0.006052
      py      :     0.004553

134 H s       :     0.853814  s :     0.853814
      pz      :     0.007758  p :     0.021293
      px      :     0.004247
      py      :     0.009288

135 H s       :     0.850213  s :     0.850213
      pz      :     0.004458  p :     0.021370
      px      :     0.012015
      py      :     0.004897

136 H s       :     0.862661  s :     0.862661
      pz      :     0.006613  p :     0.021188
      px      :     0.005577
      py      :     0.008998



                     *******************************
                     * LOEWDIN POPULATION ANALYSIS *
                     *******************************

----------------------
LOEWDIN ATOMIC CHARGES
----------------------
   0 Mg:    0.340856
   1 C :   -0.086047
   2 C :   -0.133454
   3 C :   -0.074252
   4 C :   -0.048121
   5 N :    0.196171
   6 C :   -0.126002
   7 C :   -0.163540
   8 C :   -0.187893
   9 C :   -0.154634
  10 C :   -0.266964
  11 C :   -0.215949
  12 C :   -0.216753
  13 C :   -0.463184
  14 O :    0.069817
  15 O :    0.244577
  16 N :    0.165233
  17 C :   -0.155627
  18 C :   -0.099178
  19 C :   -0.085605
  20 C :   -0.166573
  21 C :   -0.255887
  22 C :   -0.164714
  23 C :   -0.187509
  24 N :    0.177645
  25 C :   -0.177644
  26 C :   -0.128498
  27 C :   -0.098470
  28 C :   -0.184222
  29 C :   -0.259501
  30 C :   -0.244923
  31 C :   -0.299874
  32 N :    0.180741
  33 C :   -0.175912
  34 C :   -0.074263
  35 C :   -0.090779
  36 C :   -0.144292
  37 C :   -0.249306
  38 C :   -0.238613
  39 O :    0.084596
  40 C :   -0.109487
  41 C :   -0.454859
  42 O :    0.085386
  43 O :    0.243009
  44 C :   -0.297206
  45 C :   -0.254715
  46 C :   -0.177931
  47 C :   -0.188338
  48 C :   -0.256842
  49 C :   -0.220899
  50 C :   -0.255916
  51 C :   -0.245306
  52 C :   -0.286664
  53 C :   -0.287914
  54 C :   -0.246587
  55 C :   -0.265317
  56 C :   -0.246732
  57 C :   -0.287267
  58 C :   -0.288500
  59 C :   -0.246939
  60 C :   -0.265969
  61 C :   -0.249701
  62 C :   -0.315267
  63 C :   -0.292418
  64 C :   -0.293473
  65 H :    0.164319
  66 H :    0.165802
  67 H :    0.169810
  68 H :    0.170329
  69 H :    0.166268
  70 H :    0.126745
  71 H :    0.125154
  72 H :    0.129976
  73 H :    0.146181
  74 H :    0.150969
  75 H :    0.154763
  76 H :    0.164781
  77 H :    0.132476
  78 H :    0.136797
  79 H :    0.137716
  80 H :    0.157128
  81 H :    0.128829
  82 H :    0.128926
  83 H :    0.134489
  84 H :    0.131562
  85 H :    0.133371
  86 H :    0.144527
  87 H :    0.144568
  88 H :    0.120423
  89 H :    0.121250
  90 H :    0.120386
  91 H :    0.139807
  92 H :    0.136152
  93 H :    0.140870
  94 H :    0.181047
  95 H :    0.115644
  96 H :    0.117174
  97 H :    0.119788
  98 H :    0.138151
  99 H :    0.133428
 100 H :    0.149771
 101 H :    0.134409
 102 H :    0.134383
 103 H :    0.126474
 104 H :    0.146261
 105 H :    0.145122
 106 H :    0.136563
 107 H :    0.138301
 108 H :    0.139737
 109 H :    0.139038
 110 H :    0.150713
 111 H :    0.119520
 112 H :    0.119757
 113 H :    0.123010
 114 H :    0.138558
 115 H :    0.138343
 116 H :    0.133470
 117 H :    0.136934
 118 H :    0.138418
 119 H :    0.138176
 120 H :    0.150155
 121 H :    0.122905
 122 H :    0.119289
 123 H :    0.119525
 124 H :    0.138889
 125 H :    0.137906
 126 H :    0.135484
 127 H :    0.135802
 128 H :    0.137579
 129 H :    0.139039
 130 H :    0.148251
 131 H :    0.121773
 132 H :    0.121058
 133 H :    0.118918
 134 H :    0.120046
 135 H :    0.120254
 136 H :    0.120961

-------------------------------
LOEWDIN REDUCED ORBITAL CHARGES
-------------------------------
  0 Mgs       :     4.234587  s :     4.234587
      pz      :     2.212554  p :     6.695641
      px      :     2.245558
      py      :     2.237529
      dz2     :     0.132119  d :     0.728916
      dxz     :     0.086803
      dyz     :     0.186018
      dx2y2   :     0.153981
      dxy     :     0.169995

  1 C s       :     2.677887  s :     2.677887
      pz      :     0.962215  p :     2.866286
      px      :     0.970243
      py      :     0.933829
      dz2     :     0.087272  d :     0.485432
      dxz     :     0.101980
      dyz     :     0.086596
      dx2y2   :     0.110161
      dxy     :     0.099423
      f0      :     0.005529  f :     0.056442
      f+1     :     0.007224
      f-1     :     0.007814
      f+2     :     0.012422
      f-2     :     0.006873
      f+3     :     0.008078
      f-3     :     0.008503

  2 C s       :     2.739396  s :     2.739396
      pz      :     0.994553  p :     3.001811
      px      :     0.996836
      py      :     1.010422
      dz2     :     0.046327  d :     0.352688
      dxz     :     0.075081
      dyz     :     0.061724
      dx2y2   :     0.087068
      dxy     :     0.082488
      f0      :     0.004413  f :     0.039559
      f+1     :     0.002706
      f-1     :     0.006234
      f+2     :     0.005069
      f-2     :     0.007076
      f+3     :     0.008163
      f-3     :     0.005900

  3 C s       :     2.743327  s :     2.743327
      pz      :     0.959803  p :     2.922889
      px      :     0.995295
      py      :     0.967791
      dz2     :     0.078344  d :     0.368262
      dxz     :     0.084673
      dyz     :     0.047773
      dx2y2   :     0.069170
      dxy     :     0.088303
      f0      :     0.004812  f :     0.039774
      f+1     :     0.006449
      f-1     :     0.004081
      f+2     :     0.007693
      f-2     :     0.005594
      f+3     :     0.005865
      f-3     :     0.005280

  4 C s       :     2.749040  s :     2.749040
      pz      :     0.922767  p :     2.878382
      px      :     0.978749
      py      :     0.976866
      dz2     :     0.046150  d :     0.380445
      dxz     :     0.083353
      dyz     :     0.062969
      dx2y2   :     0.104830
      dxy     :     0.083142
      f0      :     0.004943  f :     0.040254
      f+1     :     0.002441
      f-1     :     0.006125
      f+2     :     0.004781
      f-2     :     0.007091
      f+3     :     0.008991
      f-3     :     0.005883

  5 N s       :     2.973467  s :     2.973467
      pz      :     1.145182  p :     3.607961
      px      :     1.293497
      py      :     1.169282
      dz2     :     0.043306  d :     0.204163
      dxz     :     0.041190
      dyz     :     0.043405
      dx2y2   :     0.036996
      dxy     :     0.039265
      f0      :     0.002010  f :     0.018239
      f+1     :     0.002674
      f-1     :     0.002482
      f+2     :     0.003223
      f-2     :     0.002783
      f+3     :     0.002759
      f-3     :     0.002308

  6 C s       :     2.698408  s :     2.698408
      pz      :     0.900486  p :     2.728340
      px      :     0.940712
      py      :     0.887142
      dz2     :     0.131887  d :     0.622163
      dxz     :     0.111883
      dyz     :     0.104191
      dx2y2   :     0.135296
      dxy     :     0.138905
      f0      :     0.007205  f :     0.077091
      f+1     :     0.009504
      f-1     :     0.011151
      f+2     :     0.015813
      f-2     :     0.009087
      f+3     :     0.011583
      f-3     :     0.012748

  7 C s       :     2.709790  s :     2.709790
      pz      :     0.973269  p :     2.919194
      px      :     0.963059
      py      :     0.982866
      dz2     :     0.105952  d :     0.480881
      dxz     :     0.109678
      dyz     :     0.082446
      dx2y2   :     0.122929
      dxy     :     0.059875
      f0      :     0.009019  f :     0.053675
      f+1     :     0.009468
      f-1     :     0.005433
      f+2     :     0.006502
      f-2     :     0.009829
      f+3     :     0.005235
      f-3     :     0.008189

  8 C s       :     2.715756  s :     2.715756
      pz      :     0.981859  p :     2.933387
      px      :     0.976433
      py      :     0.975095
      dz2     :     0.126341  d :     0.484999
      dxz     :     0.068682
      dyz     :     0.111964
      dx2y2   :     0.065730
      dxy     :     0.112282
      f0      :     0.009604  f :     0.053752
      f+1     :     0.009274
      f-1     :     0.006983
      f+2     :     0.007124
      f-2     :     0.009166
      f+3     :     0.004228
      f-3     :     0.007372

  9 C s       :     2.708804  s :     2.708804
      pz      :     0.883659  p :     2.729774
      px      :     0.896893
      py      :     0.949221
      dz2     :     0.144036  d :     0.637736
      dxz     :     0.117365
      dyz     :     0.120970
      dx2y2   :     0.123549
      dxy     :     0.131815
      f0      :     0.009983  f :     0.078320
      f+1     :     0.009813
      f-1     :     0.012311
      f+2     :     0.012075
      f-2     :     0.013447
      f+3     :     0.012856
      f-3     :     0.007836

 10 C s       :     2.824234  s :     2.824234
      pz      :     1.028436  p :     3.159746
      px      :     1.073742
      py      :     1.057568
      dz2     :     0.075643  d :     0.258779
      dxz     :     0.028404
      dyz     :     0.068113
      dx2y2   :     0.015999
      dxy     :     0.070621
      f0      :     0.003785  f :     0.024205
      f+1     :     0.004818
      f-1     :     0.004548
      f+2     :     0.004310
      f-2     :     0.002622
      f+3     :     0.000990
      f-3     :     0.003131

 11 C s       :     2.763926  s :     2.763926
      pz      :     1.016098  p :     3.024186
      px      :     0.976912
      py      :     1.031176
      dz2     :     0.084422  d :     0.389647
      dxz     :     0.086588
      dyz     :     0.053543
      dx2y2   :     0.105465
      dxy     :     0.059630
      f0      :     0.003898  f :     0.038190
      f+1     :     0.007414
      f-1     :     0.004251
      f+2     :     0.004669
      f-2     :     0.006392
      f+3     :     0.005088
      f-3     :     0.006479

 12 C s       :     2.769670  s :     2.769670
      pz      :     1.017984  p :     3.050662
      px      :     0.999024
      py      :     1.033655
      dz2     :     0.067730  d :     0.359747
      dxz     :     0.103755
      dyz     :     0.039865
      dx2y2   :     0.094772
      dxy     :     0.053626
      f0      :     0.003871  f :     0.036674
      f+1     :     0.007750
      f-1     :     0.003939
      f+2     :     0.004889
      f-2     :     0.005480
      f+3     :     0.004824
      f-3     :     0.005922

 13 C s       :     2.753820  s :     2.753820
      pz      :     1.007826  p :     2.615821
      px      :     0.897244
      py      :     0.710751
      dz2     :     0.221775  d :     0.939602
      dxz     :     0.349376
      dyz     :     0.163532
      dx2y2   :     0.093192
      dxy     :     0.111726
      f0      :     0.028274  f :     0.153941
      f+1     :     0.052179
      f-1     :     0.021044
      f+2     :     0.016080
      f-2     :     0.013171
      f+3     :     0.010616
      f-3     :     0.012577

 14 O s       :     3.391152  s :     3.391152
      pz      :     1.500792  p :     4.466365
      px      :     1.618332
      py      :     1.347241
      dz2     :     0.030684  d :     0.066483
      dxz     :     0.019543
      dyz     :     0.014015
      dx2y2   :     0.001242
      dxy     :     0.000998
      f0      :     0.002389  f :     0.006183
      f+1     :     0.002013
      f-1     :     0.001236
      f+2     :     0.000259
      f-2     :     0.000261
      f+3     :     0.000013
      f-3     :     0.000011

 15 O s       :     3.257890  s :     3.257890
      pz      :     1.545813  p :     4.387474
      px      :     1.263333
      py      :     1.578329
      dz2     :     0.016256  d :     0.103703
      dxz     :     0.038555
      dyz     :     0.007430
      dx2y2   :     0.025485
      dxy     :     0.015976
      f0      :     0.000597  f :     0.006356
      f+1     :     0.001983
      f-1     :     0.000101
      f+2     :     0.001170
      f-2     :     0.000969
      f+3     :     0.000957
      f-3     :     0.000579

 16 N s       :     2.966823  s :     2.966823
      pz      :     1.262878  p :     3.649676
      px      :     1.140377
      py      :     1.246420
      dz2     :     0.026699  d :     0.199968
      dxz     :     0.044032
      dyz     :     0.029850
      dx2y2   :     0.050643
      dxy     :     0.048744
      f0      :     0.001715  f :     0.018300
      f+1     :     0.002905
      f-1     :     0.001230
      f+2     :     0.002784
      f-2     :     0.003582
      f+3     :     0.002511
      f-3     :     0.003571

 17 C s       :     2.693174  s :     2.693174
      pz      :     0.872525  p :     2.733736
      px      :     0.920677
      py      :     0.940534
      dz2     :     0.119701  d :     0.648340
      dxz     :     0.127600
      dyz     :     0.107080
      dx2y2   :     0.150950
      dxy     :     0.143009
      f0      :     0.008704  f :     0.080377
      f+1     :     0.012903
      f-1     :     0.007141
      f+2     :     0.009015
      f-2     :     0.015985
      f+3     :     0.012383
      f-3     :     0.014247

 18 C s       :     2.701253  s :     2.701253
      pz      :     0.917405  p :     2.833784
      px      :     0.976700
      py      :     0.939679
      dz2     :     0.086781  d :     0.506040
      dxz     :     0.103966
      dyz     :     0.089989
      dx2y2   :     0.123251
      dxy     :     0.102053
      f0      :     0.006831  f :     0.058101
      f+1     :     0.006427
      f-1     :     0.007853
      f+2     :     0.009758
      f-2     :     0.008921
      f+3     :     0.011902
      f-3     :     0.006409

 19 C s       :     2.691705  s :     2.691705
      pz      :     0.905556  p :     2.826238
      px      :     0.972107
      py      :     0.948575
      dz2     :     0.088180  d :     0.509138
      dxz     :     0.090150
      dyz     :     0.092752
      dx2y2   :     0.112584
      dxy     :     0.125472
      f0      :     0.006411  f :     0.058525
      f+1     :     0.006071
      f-1     :     0.009115
      f+2     :     0.009507
      f-2     :     0.006846
      f+3     :     0.011299
      f-3     :     0.009275

 20 C s       :     2.689096  s :     2.689096
      pz      :     0.911262  p :     2.767502
      px      :     0.957569
      py      :     0.898671
      dz2     :     0.104149  d :     0.631583
      dxz     :     0.119068
      dyz     :     0.107774
      dx2y2   :     0.155870
      dxy     :     0.144722
      f0      :     0.009036  f :     0.078392
      f+1     :     0.011798
      f-1     :     0.006411
      f+2     :     0.010390
      f-2     :     0.011206
      f+3     :     0.010513
      f-3     :     0.019038

 21 C s       :     2.808684  s :     2.808684
      pz      :     1.052296  p :     3.169822
      px      :     1.050399
      py      :     1.067126
      dz2     :     0.079343  d :     0.252452
      dxz     :     0.040973
      dyz     :     0.031681
      dx2y2   :     0.067659
      dxy     :     0.032797
      f0      :     0.002725  f :     0.024930
      f+1     :     0.004343
      f-1     :     0.004124
      f+2     :     0.003270
      f-2     :     0.004555
      f+3     :     0.001617
      f-3     :     0.004296

 22 C s       :     2.769400  s :     2.769400
      pz      :     1.062628  p :     2.959201
      px      :     0.924182
      py      :     0.972391
      dz2     :     0.082028  d :     0.394362
      dxz     :     0.088406
      dyz     :     0.118223
      dx2y2   :     0.052901
      dxy     :     0.052803
      f0      :     0.007870  f :     0.041750
      f+1     :     0.006478
      f-1     :     0.008814
      f+2     :     0.005591
      f-2     :     0.005103
      f+3     :     0.003470
      f-3     :     0.004424

 23 C s       :     2.851992  s :     2.851992
      pz      :     1.084006  p :     3.070653
      px      :     0.971905
      py      :     1.014742
      dz2     :     0.060291  d :     0.237583
      dxz     :     0.064535
      dyz     :     0.073391
      dx2y2   :     0.021813
      dxy     :     0.017553
      f0      :     0.006406  f :     0.027281
      f+1     :     0.005674
      f-1     :     0.005713
      f+2     :     0.003144
      f-2     :     0.003605
      f+3     :     0.002128
      f-3     :     0.000611

 24 N s       :     2.974167  s :     2.974167
      pz      :     1.154445  p :     3.624899
      px      :     1.291011
      py      :     1.179443
      dz2     :     0.044761  d :     0.204785
      dxz     :     0.035884
      dyz     :     0.039939
      dx2y2   :     0.039770
      dxy     :     0.044430
      f0      :     0.001997  f :     0.018504
      f+1     :     0.002769
      f-1     :     0.002010
      f+2     :     0.003055
      f-2     :     0.002583
      f+3     :     0.003183
      f-3     :     0.002907

 25 C s       :     2.689732  s :     2.689732
      pz      :     0.916202  p :     2.775578
      px      :     0.949253
      py      :     0.910123
      dz2     :     0.110932  d :     0.632308
      dxz     :     0.112060
      dyz     :     0.121044
      dx2y2   :     0.145843
      dxy     :     0.142430
      f0      :     0.006464  f :     0.080026
      f+1     :     0.010637
      f-1     :     0.012092
      f+2     :     0.016250
      f-2     :     0.008378
      f+3     :     0.011286
      f-3     :     0.014921

 26 C s       :     2.700110  s :     2.700110
      pz      :     0.936309  p :     2.855796
      px      :     0.951558
      py      :     0.967930
      dz2     :     0.089413  d :     0.513626
      dxz     :     0.089112
      dyz     :     0.090644
      dx2y2   :     0.127453
      dxy     :     0.117003
      f0      :     0.005839  f :     0.058966
      f+1     :     0.007291
      f-1     :     0.007188
      f+2     :     0.008629
      f-2     :     0.009225
      f+3     :     0.007762
      f-3     :     0.013033

 27 C s       :     2.699675  s :     2.699675
      pz      :     0.924359  p :     2.824484
      px      :     0.945040
      py      :     0.955084
      dz2     :     0.100133  d :     0.515078
      dxz     :     0.103381
      dyz     :     0.080756
      dx2y2   :     0.110710
      dxy     :     0.120098
      f0      :     0.007404  f :     0.059233
      f+1     :     0.008004
      f-1     :     0.006271
      f+2     :     0.006079
      f-2     :     0.012148
      f+3     :     0.009350
      f-3     :     0.009975

 28 C s       :     2.687911  s :     2.687911
      pz      :     0.911418  p :     2.800964
      px      :     0.927634
      py      :     0.961912
      dz2     :     0.115116  d :     0.617395
      dxz     :     0.118873
      dyz     :     0.112517
      dx2y2   :     0.137635
      dxy     :     0.133254
      f0      :     0.010096  f :     0.077953
      f+1     :     0.009346
      f-1     :     0.009387
      f+2     :     0.010916
      f-2     :     0.014512
      f+3     :     0.014199
      f-3     :     0.009498

 29 C s       :     2.808545  s :     2.808545
      pz      :     1.068169  p :     3.171907
      px      :     1.058890
      py      :     1.044849
      dz2     :     0.059186  d :     0.254169
      dxz     :     0.036038
      dyz     :     0.034561
      dx2y2   :     0.073327
      dxy     :     0.051057
      f0      :     0.004176  f :     0.024880
      f+1     :     0.001146
      f-1     :     0.002402
      f+2     :     0.004267
      f-2     :     0.004035
      f+3     :     0.004933
      f-3     :     0.003920

 30 C s       :     2.760323  s :     2.760323
      pz      :     1.016512  p :     3.056802
      px      :     1.011677
      py      :     1.028612
      dz2     :     0.096285  d :     0.389160
      dxz     :     0.103395
      dyz     :     0.061327
      dx2y2   :     0.071719
      dxy     :     0.056434
      f0      :     0.007511  f :     0.038638
      f+1     :     0.007107
      f-1     :     0.004931
      f+2     :     0.004920
      f-2     :     0.007067
      f+3     :     0.002771
      f-3     :     0.004332

 31 C s       :     2.830450  s :     2.830450
      pz      :     1.038210  p :     3.184738
      px      :     1.075666
      py      :     1.070863
      dz2     :     0.055056  d :     0.260432
      dxz     :     0.089115
      dyz     :     0.042033
      dx2y2   :     0.052637
      dxy     :     0.021592
      f0      :     0.005969  f :     0.024253
      f+1     :     0.002887
      f-1     :     0.004378
      f+2     :     0.003426
      f-2     :     0.003790
      f+3     :     0.001492
      f-3     :     0.002310

 32 N s       :     2.963965  s :     2.963965
      pz      :     1.241389  p :     3.632879
      px      :     1.125428
      py      :     1.266062
      dz2     :     0.026896  d :     0.203275
      dxz     :     0.045193
      dyz     :     0.029279
      dx2y2   :     0.052076
      dxy     :     0.049831
      f0      :     0.001725  f :     0.019140
      f+1     :     0.003137
      f-1     :     0.001266
      f+2     :     0.002466
      f-2     :     0.003738
      f+3     :     0.002804
      f-3     :     0.004005

 33 C s       :     2.690706  s :     2.690706
      pz      :     0.907571  p :     2.804291
      px      :     0.933370
      py      :     0.963350
      dz2     :     0.109207  d :     0.604695
      dxz     :     0.119500
      dyz     :     0.093463
      dx2y2   :     0.137049
      dxy     :     0.145476
      f0      :     0.007421  f :     0.076220
      f+1     :     0.012153
      f-1     :     0.006391
      f+2     :     0.008868
      f-2     :     0.014980
      f+3     :     0.013606
      f-3     :     0.012801

 34 C s       :     2.708600  s :     2.708600
      pz      :     0.891051  p :     2.786658
      px      :     0.965719
      py      :     0.929888
      dz2     :     0.083480  d :     0.520077
      dxz     :     0.110263
      dyz     :     0.093148
      dx2y2   :     0.130890
      dxy     :     0.102296
      f0      :     0.005799  f :     0.058928
      f+1     :     0.007384
      f-1     :     0.008230
      f+2     :     0.011475
      f-2     :     0.007135
      f+3     :     0.011222
      f-3     :     0.007683

 35 C s       :     2.679976  s :     2.679976
      pz      :     0.942568  p :     2.869215
      px      :     0.975530
      py      :     0.951116
      dz2     :     0.083252  d :     0.479235
      dxz     :     0.085794
      dyz     :     0.070972
      dx2y2   :     0.097811
      dxy     :     0.141406
      f0      :     0.006374  f :     0.062353
      f+1     :     0.007298
      f-1     :     0.007382
      f+2     :     0.008661
      f-2     :     0.008282
      f+3     :     0.010953
      f-3     :     0.013403

 36 C s       :     2.661781  s :     2.661781
      pz      :     0.879270  p :     2.711449
      px      :     0.933203
      py      :     0.898976
      dz2     :     0.111933  d :     0.682626
      dxz     :     0.120742
      dyz     :     0.116073
      dx2y2   :     0.175741
      dxy     :     0.158136
      f0      :     0.009930  f :     0.088437
      f+1     :     0.012000
      f-1     :     0.007796
      f+2     :     0.010571
      f-2     :     0.012689
      f+3     :     0.013591
      f-3     :     0.021861

 37 C s       :     2.810081  s :     2.810081
      pz      :     1.051388  p :     3.169195
      px      :     1.051706
      py      :     1.066100
      dz2     :     0.038490  d :     0.245442
      dxz     :     0.052868
      dyz     :     0.067044
      dx2y2   :     0.048569
      dxy     :     0.038470
      f0      :     0.004433  f :     0.024588
      f+1     :     0.003513
      f-1     :     0.002552
      f+2     :     0.004300
      f-2     :     0.003594
      f+3     :     0.003879
      f-3     :     0.002316

 38 C s       :     2.743785  s :     2.743785
      pz      :     0.808136  p :     2.621930
      px      :     0.905845
      py      :     0.907949
      dz2     :     0.123447  d :     0.767448
      dxz     :     0.143711
      dyz     :     0.147999
      dx2y2   :     0.165221
      dxy     :     0.187070
      f0      :     0.010783  f :     0.105450
      f+1     :     0.006429
      f-1     :     0.019077
      f+2     :     0.013409
      f-2     :     0.023178
      f+3     :     0.018926
      f-3     :     0.013648

 39 O s       :     3.393766  s :     3.393766
      pz      :     1.405652  p :     4.447851
      px      :     1.578506
      py      :     1.463692
      dz2     :     0.010277  d :     0.067770
      dxz     :     0.007837
      dyz     :     0.022745
      dx2y2   :     0.013549
      dxy     :     0.013362
      f0      :     0.000513  f :     0.006017
      f+1     :     0.000101
      f-1     :     0.001350
      f+2     :     0.001484
      f-2     :     0.001132
      f+3     :     0.000741
      f-3     :     0.000696

 40 C s       :     2.721150  s :     2.721150
      pz      :     0.975144  p :     2.915255
      px      :     0.978890
      py      :     0.961222
      dz2     :     0.056136  d :     0.427009
      dxz     :     0.102672
      dyz     :     0.100656
      dx2y2   :     0.100606
      dxy     :     0.066939
      f0      :     0.005786  f :     0.046074
      f+1     :     0.004118
      f-1     :     0.008868
      f+2     :     0.007282
      f-2     :     0.006305
      f+3     :     0.007109
      f-3     :     0.006606

 41 C s       :     2.747712  s :     2.747712
      pz      :     0.947803  p :     2.613181
      px      :     0.786456
      py      :     0.878921
      dz2     :     0.207619  d :     0.939858
      dxz     :     0.202460
      dyz     :     0.262530
      dx2y2   :     0.143400
      dxy     :     0.123849
      f0      :     0.024018  f :     0.154108
      f+1     :     0.024647
      f-1     :     0.034699
      f+2     :     0.019617
      f-2     :     0.021819
      f+3     :     0.015640
      f-3     :     0.013669

 42 O s       :     3.389212  s :     3.389212
      pz      :     1.465418  p :     4.452448
      px      :     1.436357
      py      :     1.550673
      dz2     :     0.022959  d :     0.066747
      dxz     :     0.020451
      dyz     :     0.015570
      dx2y2   :     0.003866
      dxy     :     0.003901
      f0      :     0.001442  f :     0.006207
      f+1     :     0.001866
      f-1     :     0.001170
      f+2     :     0.000811
      f-2     :     0.000722
      f+3     :     0.000106
      f-3     :     0.000089

 43 O s       :     3.253304  s :     3.253304
      pz      :     1.561748  p :     4.388234
      px      :     1.499905
      py      :     1.326580
      dz2     :     0.015627  d :     0.108738
      dxz     :     0.014345
      dyz     :     0.028208
      dx2y2   :     0.022136
      dxy     :     0.028422
      f0      :     0.000480  f :     0.006715
      f+1     :     0.000570
      f-1     :     0.001301
      f+2     :     0.001109
      f-2     :     0.001310
      f+3     :     0.001176
      f-3     :     0.000769

 44 C s       :     2.862228  s :     2.862228
      pz      :     1.054890  p :     3.026256
      px      :     1.108308
      py      :     0.863057
      dz2     :     0.069616  d :     0.356418
      dxz     :     0.049333
      dyz     :     0.088663
      dx2y2   :     0.056267
      dxy     :     0.092539
      f0      :     0.004449  f :     0.052304
      f+1     :     0.002325
      f-1     :     0.011500
      f+2     :     0.010559
      f-2     :     0.007408
      f+3     :     0.006316
      f-3     :     0.009748

 45 C s       :     2.793229  s :     2.793229
      pz      :     0.961117  p :     2.906253
      px      :     0.881831
      py      :     1.063305
      dz2     :     0.063060  d :     0.489702
      dxz     :     0.136803
      dyz     :     0.120967
      dx2y2   :     0.100924
      dxy     :     0.067947
      f0      :     0.007877  f :     0.065531
      f+1     :     0.019383
      f-1     :     0.001664
      f+2     :     0.010452
      f-2     :     0.010521
      f+3     :     0.005678
      f-3     :     0.009957

 46 C s       :     2.773421  s :     2.773421
      pz      :     0.960657  p :     2.985578
      px      :     1.006102
      py      :     1.018819
      dz2     :     0.031740  d :     0.378779
      dxz     :     0.072163
      dyz     :     0.076462
      dx2y2   :     0.115425
      dxy     :     0.082989
      f0      :     0.004236  f :     0.040153
      f+1     :     0.005138
      f-1     :     0.002274
      f+2     :     0.004308
      f-2     :     0.007716
      f+3     :     0.006919
      f-3     :     0.009563

 47 C s       :     2.732378  s :     2.732378
      pz      :     0.873647  p :     2.864588
      px      :     0.976735
      py      :     1.014206
      dz2     :     0.065949  d :     0.535007
      dxz     :     0.091047
      dyz     :     0.105530
      dx2y2   :     0.154737
      dxy     :     0.117744
      f0      :     0.005287  f :     0.056365
      f+1     :     0.005545
      f-1     :     0.007015
      f+2     :     0.005048
      f-2     :     0.010892
      f+3     :     0.010932
      f-3     :     0.011646

 48 C s       :     2.812152  s :     2.812152
      pz      :     1.064817  p :     3.169527
      px      :     1.067971
      py      :     1.036739
      dz2     :     0.026336  d :     0.250767
      dxz     :     0.054809
      dyz     :     0.067754
      dx2y2   :     0.062715
      dxy     :     0.039153
      f0      :     0.002652  f :     0.024396
      f+1     :     0.002140
      f-1     :     0.004819
      f+2     :     0.003854
      f-2     :     0.003112
      f+3     :     0.005058
      f-3     :     0.002760

 49 C s       :     2.763890  s :     2.763890
      pz      :     1.013623  p :     3.030878
      px      :     0.992430
      py      :     1.024824
      dz2     :     0.045663  d :     0.388267
      dxz     :     0.088590
      dyz     :     0.105420
      dx2y2   :     0.095611
      dxy     :     0.052982
      f0      :     0.004269  f :     0.037864
      f+1     :     0.009488
      f-1     :     0.001401
      f+2     :     0.005719
      f-2     :     0.005573
      f+3     :     0.003890
      f-3     :     0.007523

 50 C s       :     2.771848  s :     2.771848
      pz      :     1.028096  p :     3.049986
      px      :     0.993679
      py      :     1.028211
      dz2     :     0.049095  d :     0.395727
      dxz     :     0.090747
      dyz     :     0.110420
      dx2y2   :     0.092059
      dxy     :     0.053405
      f0      :     0.004518  f :     0.038355
      f+1     :     0.010128
      f-1     :     0.001471
      f+2     :     0.005551
      f-2     :     0.006074
      f+3     :     0.003685
      f-3     :     0.006929

 51 C s       :     2.770467  s :     2.770467
      pz      :     1.018478  p :     3.038780
      px      :     0.995478
      py      :     1.024825
      dz2     :     0.050033  d :     0.398115
      dxz     :     0.089684
      dyz     :     0.107553
      dx2y2   :     0.097884
      dxy     :     0.052961
      f0      :     0.004217  f :     0.037943
      f+1     :     0.009522
      f-1     :     0.001658
      f+2     :     0.005616
      f-2     :     0.005828
      f+3     :     0.003764
      f-3     :     0.007338

 52 C s       :     2.730443  s :     2.730443
      pz      :     0.999718  p :     2.981408
      px      :     0.984557
      py      :     0.997133
      dz2     :     0.075394  d :     0.522172
      dxz     :     0.122242
      dyz     :     0.131143
      dx2y2   :     0.121180
      dxy     :     0.072214
      f0      :     0.006739  f :     0.052641
      f+1     :     0.010253
      f-1     :     0.005498
      f+2     :     0.006979
      f-2     :     0.009369
      f+3     :     0.005803
      f-3     :     0.007999

 53 C s       :     2.822761  s :     2.822761
      pz      :     1.057006  p :     3.177093
      px      :     1.066246
      py      :     1.053841
      dz2     :     0.030702  d :     0.263600
      dxz     :     0.079056
      dyz     :     0.059795
      dx2y2   :     0.071193
      dxy     :     0.022854
      f0      :     0.004083  f :     0.024460
      f+1     :     0.001563
      f-1     :     0.004832
      f+2     :     0.004471
      f-2     :     0.002912
      f+3     :     0.003839
      f-3     :     0.002761

 54 C s       :     2.770570  s :     2.770570
      pz      :     1.015284  p :     3.038970
      px      :     1.000005
      py      :     1.023681
      dz2     :     0.048896  d :     0.399145
      dxz     :     0.091593
      dyz     :     0.107879
      dx2y2   :     0.093709
      dxy     :     0.057069
      f0      :     0.004852  f :     0.037903
      f+1     :     0.008797
      f-1     :     0.001708
      f+2     :     0.005739
      f-2     :     0.005743
      f+3     :     0.004298
      f-3     :     0.006766

 55 C s       :     2.770082  s :     2.770082
      pz      :     1.027967  p :     3.057845
      px      :     1.004438
      py      :     1.025441
      dz2     :     0.049758  d :     0.398614
      dxz     :     0.092484
      dyz     :     0.111432
      dx2y2   :     0.085483
      dxy     :     0.059457
      f0      :     0.005463  f :     0.038775
      f+1     :     0.008919
      f-1     :     0.001888
      f+2     :     0.006008
      f-2     :     0.005898
      f+3     :     0.004448
      f-3     :     0.006153

 56 C s       :     2.770574  s :     2.770574
      pz      :     1.019490  p :     3.039083
      px      :     0.995846
      py      :     1.023747
      dz2     :     0.049729  d :     0.399157
      dxz     :     0.093028
      dyz     :     0.108520
      dx2y2   :     0.086702
      dxy     :     0.061179
      f0      :     0.005365  f :     0.037917
      f+1     :     0.008060
      f-1     :     0.002002
      f+2     :     0.005668
      f-2     :     0.005978
      f+3     :     0.005035
      f-3     :     0.005808

 57 C s       :     2.730479  s :     2.730479
      pz      :     0.998101  p :     2.981815
      px      :     0.987762
      py      :     0.995952
      dz2     :     0.077092  d :     0.522329
      dxz     :     0.114459
      dyz     :     0.132600
      dx2y2   :     0.112713
      dxy     :     0.085465
      f0      :     0.007024  f :     0.052644
      f+1     :     0.008872
      f-1     :     0.006268
      f+2     :     0.009020
      f-2     :     0.006972
      f+3     :     0.006536
      f-3     :     0.007952

 58 C s       :     2.822736  s :     2.822736
      pz      :     1.059742  p :     3.177336
      px      :     1.062568
      py      :     1.055026
      dz2     :     0.035540  d :     0.263953
      dxz     :     0.061122
      dyz     :     0.065632
      dx2y2   :     0.068221
      dxy     :     0.033438
      f0      :     0.002973  f :     0.024476
      f+1     :     0.003027
      f-1     :     0.004281
      f+2     :     0.004101
      f-2     :     0.002837
      f+3     :     0.002935
      f-3     :     0.004323

 59 C s       :     2.770578  s :     2.770578
      pz      :     1.013280  p :     3.039350
      px      :     1.007259
      py      :     1.018812
      dz2     :     0.050889  d :     0.399098
      dxz     :     0.093949
      dyz     :     0.105169
      dx2y2   :     0.074021
      dxy     :     0.075069
      f0      :     0.006240  f :     0.037913
      f+1     :     0.006585
      f-1     :     0.002633
      f+2     :     0.005816
      f-2     :     0.005813
      f+3     :     0.006631
      f-3     :     0.004195

 60 C s       :     2.770429  s :     2.770429
      pz      :     1.026535  p :     3.058221
      px      :     1.010708
      py      :     1.020977
      dz2     :     0.055284  d :     0.398553
      dxz     :     0.092765
      dyz     :     0.105624
      dx2y2   :     0.068022
      dxy     :     0.076858
      f0      :     0.006744  f :     0.038766
      f+1     :     0.006439
      f-1     :     0.003237
      f+2     :     0.006476
      f-2     :     0.005398
      f+3     :     0.006719
      f-3     :     0.003754

 61 C s       :     2.771468  s :     2.771468
      pz      :     1.019058  p :     3.040861
      px      :     1.003055
      py      :     1.018749
      dz2     :     0.056595  d :     0.399462
      dxz     :     0.090646
      dyz     :     0.105034
      dx2y2   :     0.069823
      dxy     :     0.077364
      f0      :     0.006466  f :     0.037910
      f+1     :     0.005889
      f-1     :     0.003275
      f+2     :     0.006883
      f-2     :     0.004850
      f+3     :     0.006251
      f-3     :     0.004296

 62 C s       :     2.733721  s :     2.733721
      pz      :     1.004755  p :     2.998437
      px      :     0.994409
      py      :     0.999273
      dz2     :     0.095049  d :     0.529710
      dxz     :     0.113934
      dyz     :     0.121300
      dx2y2   :     0.093885
      dxy     :     0.105542
      f0      :     0.009292  f :     0.053399
      f+1     :     0.006545
      f-1     :     0.007417
      f+2     :     0.007121
      f-2     :     0.009335
      f+3     :     0.008209
      f-3     :     0.005481

 63 C s       :     2.825601  s :     2.825601
      pz      :     1.056354  p :     3.177977
      px      :     1.069431
      py      :     1.052193
      dz2     :     0.064542  d :     0.264375
      dxz     :     0.043591
      dyz     :     0.050249
      dx2y2   :     0.046576
      dxy     :     0.059417
      f0      :     0.002886  f :     0.024465
      f+1     :     0.002864
      f-1     :     0.004808
      f+2     :     0.002749
      f-2     :     0.004676
      f+3     :     0.003696
      f-3     :     0.002785

 64 C s       :     2.827181  s :     2.827181
      pz      :     1.047736  p :     3.176165
      px      :     1.057931
      py      :     1.070499
      dz2     :     0.051861  d :     0.265623
      dxz     :     0.042954
      dyz     :     0.090745
      dx2y2   :     0.050781
      dxy     :     0.029283
      f0      :     0.006047  f :     0.024503
      f+1     :     0.003811
      f-1     :     0.002606
      f+2     :     0.003932
      f-2     :     0.003898
      f+3     :     0.002287
      f-3     :     0.001922

 65 H s       :     0.774023  s :     0.774023
      pz      :     0.024487  p :     0.061658
      px      :     0.024439
      py      :     0.012731

 66 H s       :     0.772862  s :     0.772862
      pz      :     0.015423  p :     0.061336
      px      :     0.017218
      py      :     0.028694

 67 H s       :     0.769851  s :     0.769851
      pz      :     0.021884  p :     0.060339
      px      :     0.026126
      py      :     0.012329

 68 H s       :     0.771227  s :     0.771227
      pz      :     0.013374  p :     0.058444
      px      :     0.012400
      py      :     0.032670

 69 H s       :     0.775717  s :     0.775717
      pz      :     0.012210  p :     0.058015
      px      :     0.028289
      py      :     0.017516

 70 H s       :     0.812019  s :     0.812019
      pz      :     0.012749  p :     0.061236
      px      :     0.025653
      py      :     0.022835

 71 H s       :     0.813198  s :     0.813198
      pz      :     0.026784  p :     0.061648
      px      :     0.013481
      py      :     0.021383

 72 H s       :     0.808638  s :     0.808638
      pz      :     0.012638  p :     0.061386
      px      :     0.030094
      py      :     0.018653

 73 H s       :     0.793082  s :     0.793082
      pz      :     0.029780  p :     0.060737
      px      :     0.013110
      py      :     0.017847

 74 H s       :     0.789969  s :     0.789969
      pz      :     0.013459  p :     0.059062
      px      :     0.012066
      py      :     0.033537

 75 H s       :     0.784502  s :     0.784502
      pz      :     0.028991  p :     0.060735
      px      :     0.013850
      py      :     0.017893

 76 H s       :     0.775089  s :     0.775089
      pz      :     0.013753  p :     0.060130
      px      :     0.012293
      py      :     0.034084

 77 H s       :     0.805793  s :     0.805793
      pz      :     0.014691  p :     0.061731
      px      :     0.030736
      py      :     0.016303

 78 H s       :     0.801360  s :     0.801360
      pz      :     0.012947  p :     0.061843
      px      :     0.012732
      py      :     0.036164

 79 H s       :     0.801161  s :     0.801161
      pz      :     0.030924  p :     0.061123
      px      :     0.013817
      py      :     0.016382

 80 H s       :     0.783788  s :     0.783788
      pz      :     0.019845  p :     0.059084
      px      :     0.021573
      py      :     0.017666

 81 H s       :     0.808464  s :     0.808464
      pz      :     0.012871  p :     0.062707
      px      :     0.018524
      py      :     0.031313

 82 H s       :     0.807516  s :     0.807516
      pz      :     0.022740  p :     0.063559
      px      :     0.022118
      py      :     0.018701

 83 H s       :     0.804557  s :     0.804557
      pz      :     0.015251  p :     0.060954
      px      :     0.017900
      py      :     0.027803

 84 H s       :     0.806752  s :     0.806752
      pz      :     0.018232  p :     0.061686
      px      :     0.030600
      py      :     0.012853

 85 H s       :     0.805548  s :     0.805548
      pz      :     0.034768  p :     0.061081
      px      :     0.013629
      py      :     0.012684

 86 H s       :     0.796618  s :     0.796618
      pz      :     0.013004  p :     0.058855
      px      :     0.013785
      py      :     0.032066

 87 H s       :     0.796519  s :     0.796519
      pz      :     0.016582  p :     0.058913
      px      :     0.024712
      py      :     0.017618

 88 H s       :     0.818462  s :     0.818462
      pz      :     0.020068  p :     0.061115
      px      :     0.027601
      py      :     0.013446

 89 H s       :     0.817508  s :     0.817508
      pz      :     0.013000  p :     0.061242
      px      :     0.014461
      py      :     0.033781

 90 H s       :     0.818196  s :     0.818196
      pz      :     0.017197  p :     0.061418
      px      :     0.026770
      py      :     0.017452

 91 H s       :     0.798882  s :     0.798882
      pz      :     0.023607  p :     0.061310
      px      :     0.013787
      py      :     0.023916

 92 H s       :     0.802068  s :     0.802068
      pz      :     0.017016  p :     0.061780
      px      :     0.016399
      py      :     0.028365

 93 H s       :     0.797834  s :     0.797834
      pz      :     0.017374  p :     0.061296
      px      :     0.029212
      py      :     0.014710

 94 H s       :     0.758455  s :     0.758455
      pz      :     0.021252  p :     0.060497
      px      :     0.027395
      py      :     0.011850

 95 H s       :     0.821798  s :     0.821798
      pz      :     0.035532  p :     0.062558
      px      :     0.017199
      py      :     0.009828

 96 H s       :     0.820231  s :     0.820231
      pz      :     0.012739  p :     0.062595
      px      :     0.032797
      py      :     0.017059

 97 H s       :     0.818332  s :     0.818332
      pz      :     0.020735  p :     0.061880
      px      :     0.024829
      py      :     0.016316

 98 H s       :     0.802435  s :     0.802435
      pz      :     0.021549  p :     0.059414
      px      :     0.009851
      py      :     0.028014

 99 H s       :     0.804995  s :     0.804995
      pz      :     0.018872  p :     0.061577
      px      :     0.010326
      py      :     0.032379

100 H s       :     0.790186  s :     0.790186
      pz      :     0.020007  p :     0.060044
      px      :     0.012938
      py      :     0.027098

101 H s       :     0.804660  s :     0.804660
      pz      :     0.022014  p :     0.060931
      px      :     0.014643
      py      :     0.024274

102 H s       :     0.803876  s :     0.803876
      pz      :     0.025863  p :     0.061741
      px      :     0.023019
      py      :     0.012858

103 H s       :     0.810871  s :     0.810871
      pz      :     0.016294  p :     0.062655
      px      :     0.033091
      py      :     0.013271

104 H s       :     0.795611  s :     0.795611
      pz      :     0.021037  p :     0.058128
      px      :     0.012267
      py      :     0.024823

105 H s       :     0.796771  s :     0.796771
      pz      :     0.018212  p :     0.058107
      px      :     0.011825
      py      :     0.028071

106 H s       :     0.803987  s :     0.803987
      pz      :     0.021699  p :     0.059450
      px      :     0.012666
      py      :     0.025085

107 H s       :     0.802625  s :     0.802625
      pz      :     0.018544  p :     0.059075
      px      :     0.012681
      py      :     0.027850

108 H s       :     0.801964  s :     0.801964
      pz      :     0.022136  p :     0.058299
      px      :     0.012166
      py      :     0.023998

109 H s       :     0.802707  s :     0.802707
      pz      :     0.017904  p :     0.058255
      px      :     0.012489
      py      :     0.027862

110 H s       :     0.793316  s :     0.793316
      pz      :     0.018434  p :     0.055972
      px      :     0.012273
      py      :     0.025265

111 H s       :     0.818446  s :     0.818446
      pz      :     0.022379  p :     0.062034
      px      :     0.026395
      py      :     0.013260

112 H s       :     0.818179  s :     0.818179
      pz      :     0.018833  p :     0.062064
      px      :     0.029891
      py      :     0.013341

113 H s       :     0.816311  s :     0.816311
      pz      :     0.019039  p :     0.060679
      px      :     0.013461
      py      :     0.028179

114 H s       :     0.803215  s :     0.803215
      pz      :     0.020967  p :     0.058227
      px      :     0.013003
      py      :     0.024256

115 H s       :     0.803461  s :     0.803461
      pz      :     0.018669  p :     0.058196
      px      :     0.012545
      py      :     0.026983

116 H s       :     0.806477  s :     0.806477
      pz      :     0.020020  p :     0.060053
      px      :     0.014479
      py      :     0.025554

117 H s       :     0.804968  s :     0.804968
      pz      :     0.019527  p :     0.058098
      px      :     0.012426
      py      :     0.026145

118 H s       :     0.803372  s :     0.803372
      pz      :     0.020318  p :     0.058210
      px      :     0.013904
      py      :     0.023988

119 H s       :     0.803628  s :     0.803628
      pz      :     0.019045  p :     0.058197
      px      :     0.012573
      py      :     0.026579

120 H s       :     0.793869  s :     0.793869
      pz      :     0.019330  p :     0.055975
      px      :     0.012507
      py      :     0.024138

121 H s       :     0.816449  s :     0.816449
      pz      :     0.020131  p :     0.060646
      px      :     0.013583
      py      :     0.026931

122 H s       :     0.818671  s :     0.818671
      pz      :     0.025751  p :     0.062040
      px      :     0.021939
      py      :     0.014350

123 H s       :     0.818425  s :     0.818425
      pz      :     0.016271  p :     0.062050
      px      :     0.031066
      py      :     0.014713

124 H s       :     0.802879  s :     0.802879
      pz      :     0.019020  p :     0.058232
      px      :     0.016713
      py      :     0.022499

125 H s       :     0.803929  s :     0.803929
      pz      :     0.019695  p :     0.058165
      px      :     0.013032
      py      :     0.025438

126 H s       :     0.805487  s :     0.805487
      pz      :     0.017732  p :     0.059029
      px      :     0.018078
      py      :     0.023219

127 H s       :     0.805274  s :     0.805274
      pz      :     0.020999  p :     0.058924
      px      :     0.013245
      py      :     0.024680

128 H s       :     0.804332  s :     0.804332
      pz      :     0.016808  p :     0.058089
      px      :     0.017297
      py      :     0.023985

129 H s       :     0.802747  s :     0.802747
      pz      :     0.021580  p :     0.058214
      px      :     0.012600
      py      :     0.024034

130 H s       :     0.795728  s :     0.795728
      pz      :     0.016615  p :     0.056021
      px      :     0.016484
      py      :     0.022921

131 H s       :     0.817548  s :     0.817548
      pz      :     0.016926  p :     0.060680
      px      :     0.018475
      py      :     0.025279

132 H s       :     0.817982  s :     0.817982
      pz      :     0.013869  p :     0.060960
      px      :     0.032176
      py      :     0.014915

133 H s       :     0.819247  s :     0.819247
      pz      :     0.029506  p :     0.061834
      px      :     0.018060
      py      :     0.014269

134 H s       :     0.819091  s :     0.819091
      pz      :     0.020737  p :     0.060862
      px      :     0.013154
      py      :     0.026971

135 H s       :     0.818826  s :     0.818826
      pz      :     0.013899  p :     0.060920
      px      :     0.031966
      py      :     0.015055

136 H s       :     0.818270  s :     0.818270
      pz      :     0.018064  p :     0.060769
      px      :     0.017313
      py      :     0.025392



                      *****************************
                      * MAYER POPULATION ANALYSIS *
                      *****************************

  NA   - Mulliken gross atomic population
  ZA   - Total nuclear charge
  QA   - Mulliken gross atomic charge
  VA   - Mayer's total valence
  BVA  - Mayer's bonded valence
  FA   - Mayer's free valence

  ATOM       NA         ZA         QA         VA         BVA        FA
  0 Mg    11.1773    12.0000     0.8227     1.8971     1.8971    -0.0000
  1 C      6.2634     6.0000    -0.2634     3.7849     3.7849     0.0000
  2 C      6.5405     6.0000    -0.5405     3.9366     3.9366    -0.0000
  3 C      6.3499     6.0000    -0.3499     3.9969     3.9969     0.0000
  4 C      6.2929     6.0000    -0.2929     3.9307     3.9307    -0.0000
  5 N      7.4214     7.0000    -0.4214     2.9888     2.9888     0.0000
  6 C      5.7257     6.0000     0.2743     3.5836     3.5836     0.0000
  7 C      6.0166     6.0000    -0.0166     3.9407     3.9407     0.0000
  8 C      5.9179     6.0000     0.0821     3.8504     3.8504     0.0000
  9 C      5.8256     6.0000     0.1744     4.0750     4.0750     0.0000
 10 C      6.4380     6.0000    -0.4380     3.9207     3.9207    -0.0000
 11 C      6.3385     6.0000    -0.3385     3.9587     3.9587    -0.0000
 12 C      6.2143     6.0000    -0.2143     3.8525     3.8525    -0.0000
 13 C      5.6200     6.0000     0.3800     4.2043     4.2043    -0.0000
 14 O      8.4282     8.0000    -0.4282     2.0762     2.0762    -0.0000
 15 O      8.2754     8.0000    -0.2754     2.1169     2.1169    -0.0000
 16 N      7.4049     7.0000    -0.4049     3.0661     3.0661     0.0000
 17 C      5.6737     6.0000     0.3263     3.7086     3.7086    -0.0000
 18 C      6.0280     6.0000    -0.0280     3.7128     3.7128    -0.0000
 19 C      5.9952     6.0000     0.0048     3.8279     3.8279    -0.0000
 20 C      5.7688     6.0000     0.2312     3.8369     3.8369     0.0000
 21 C      6.4359     6.0000    -0.4359     3.8448     3.8448     0.0000
 22 C      6.1928     6.0000    -0.1928     3.8139     3.8139    -0.0000
 23 C      6.3301     6.0000    -0.3301     3.8932     3.8932    -0.0000
 24 N      7.3908     7.0000    -0.3908     3.0480     3.0480    -0.0000
 25 C      5.8196     6.0000     0.1804     3.9466     3.9466     0.0000
 26 C      6.0447     6.0000    -0.0447     3.7338     3.7338     0.0000
 27 C      6.0648     6.0000    -0.0648     3.7559     3.7559    -0.0000
 28 C      5.7460     6.0000     0.2540     3.6494     3.6494    -0.0000
 29 C      6.4002     6.0000    -0.4002     3.8478     3.8478     0.0000
 30 C      6.2656     6.0000    -0.2656     3.8601     3.8601    -0.0000
 31 C      6.3694     6.0000    -0.3694     3.8709     3.8709    -0.0000
 32 N      7.4167     7.0000    -0.4167     3.0461     3.0461     0.0000
 33 C      5.8300     6.0000     0.1700     3.9009     3.9009    -0.0000
 34 C      6.0718     6.0000    -0.0718     3.8639     3.8639     0.0000
 35 C      6.0998     6.0000    -0.0998     3.4105     3.4105    -0.0000
 36 C      5.8033     6.0000     0.1967     3.8554     3.8554     0.0000
 37 C      6.4147     6.0000    -0.4147     3.8333     3.8333    -0.0000
 38 C      5.8377     6.0000     0.1623     4.3249     4.3249    -0.0000
 39 O      8.3789     8.0000    -0.3789     2.1423     2.1423     0.0000
 40 C      5.9323     6.0000     0.0677     3.5153     3.5153     0.0000
 41 C      5.6775     6.0000     0.3225     4.2614     4.2614     0.0000
 42 O      8.4062     8.0000    -0.4062     2.1013     2.1013    -0.0000
 43 O      8.2695     8.0000    -0.2695     2.1255     2.1255    -0.0000
 44 C      6.2352     6.0000    -0.2352     3.8524     3.8524     0.0000
 45 C      6.0588     6.0000    -0.0588     3.8925     3.8925     0.0000
 46 C      6.2284     6.0000    -0.2284     3.9165     3.9165    -0.0000
 47 C      5.9790     6.0000     0.0210     3.8074     3.8074    -0.0000
 48 C      6.3945     6.0000    -0.3945     3.8913     3.8913     0.0000
 49 C      6.1936     6.0000    -0.1936     3.8606     3.8606    -0.0000
 50 C      6.2711     6.0000    -0.2711     3.8828     3.8828     0.0000
 51 C      6.2279     6.0000    -0.2279     3.9221     3.9221    -0.0000
 52 C      5.9560     6.0000     0.0440     3.8268     3.8268    -0.0000
 53 C      6.4438     6.0000    -0.4438     3.9114     3.9114    -0.0000
 54 C      6.2287     6.0000    -0.2287     3.9294     3.9294     0.0000
 55 C      6.2468     6.0000    -0.2468     3.9358     3.9358    -0.0000
 56 C      6.2309     6.0000    -0.2309     3.9391     3.9391    -0.0000
 57 C      5.9481     6.0000     0.0519     3.8219     3.8219    -0.0000
 58 C      6.4453     6.0000    -0.4453     3.9093     3.9093    -0.0000
 59 C      6.2293     6.0000    -0.2293     3.9335     3.9335    -0.0000
 60 C      6.2486     6.0000    -0.2486     3.9273     3.9273    -0.0000
 61 C      6.2294     6.0000    -0.2294     3.8769     3.8769    -0.0000
 62 C      5.9830     6.0000     0.0170     3.8438     3.8438    -0.0000
 63 C      6.4179     6.0000    -0.4179     3.8911     3.8911    -0.0000
 64 C      6.3871     6.0000    -0.3871     3.9009     3.9009    -0.0000
 65 H      0.8391     1.0000     0.1609     0.9621     0.9621    -0.0000
 66 H      0.8265     1.0000     0.1735     0.9513     0.9513     0.0000
 67 H      0.8105     1.0000     0.1895     0.9425     0.9425    -0.0000
 68 H      0.8539     1.0000     0.1461     0.9588     0.9588    -0.0000
 69 H      0.8806     1.0000     0.1194     0.9627     0.9627     0.0000
 70 H      0.8584     1.0000     0.1416     0.9667     0.9667    -0.0000
 71 H      0.8609     1.0000     0.1391     0.9730     0.9730    -0.0000
 72 H      0.8581     1.0000     0.1419     0.9675     0.9675    -0.0000
 73 H      0.8618     1.0000     0.1382     0.9888     0.9888    -0.0000
 74 H      0.8565     1.0000     0.1435     0.9693     0.9693    -0.0000
 75 H      0.8511     1.0000     0.1489     0.9914     0.9914    -0.0000
 76 H      0.8446     1.0000     0.1554     0.9736     0.9736    -0.0000
 77 H      0.8539     1.0000     0.1461     0.9688     0.9688     0.0000
 78 H      0.8399     1.0000     0.1601     0.9586     0.9586     0.0000
 79 H      0.8321     1.0000     0.1679     0.9488     0.9488    -0.0000
 80 H      0.8429     1.0000     0.1571     0.9703     0.9703    -0.0000
 81 H      0.8383     1.0000     0.1617     0.9723     0.9723    -0.0000
 82 H      0.8254     1.0000     0.1746     0.9581     0.9581    -0.0000
 83 H      0.8459     1.0000     0.1541     0.9567     0.9567     0.0000
 84 H      0.8606     1.0000     0.1394     0.9736     0.9736     0.0000
 85 H      0.8519     1.0000     0.1481     0.9580     0.9580     0.0000
 86 H      0.8732     1.0000     0.1268     0.9641     0.9641    -0.0000
 87 H      0.8696     1.0000     0.1304     0.9622     0.9622    -0.0000
 88 H      0.8695     1.0000     0.1305     0.9708     0.9708    -0.0000
 89 H      0.8724     1.0000     0.1276     0.9701     0.9701    -0.0000
 90 H      0.8716     1.0000     0.1284     0.9726     0.9726    -0.0000
 91 H      0.8428     1.0000     0.1572     0.9576     0.9576     0.0000
 92 H      0.8476     1.0000     0.1524     0.9808     0.9808    -0.0000
 93 H      0.8401     1.0000     0.1599     0.9568     0.9568    -0.0000
 94 H      0.8522     1.0000     0.1478     0.9917     0.9917     0.0000
 95 H      0.8525     1.0000     0.1475     0.9647     0.9647    -0.0000
 96 H      0.8490     1.0000     0.1510     0.9659     0.9659     0.0000
 97 H      0.8433     1.0000     0.1567     0.9666     0.9666     0.0000
 98 H      0.8581     1.0000     0.1419     0.9676     0.9676     0.0000
 99 H      0.8772     1.0000     0.1228     0.9812     0.9812     0.0000
100 H      0.8541     1.0000     0.1459     0.9737     0.9737    -0.0000
101 H      0.8582     1.0000     0.1418     0.9658     0.9658     0.0000
102 H      0.8456     1.0000     0.1544     0.9555     0.9555     0.0000
103 H      0.8638     1.0000     0.1362     0.9714     0.9714    -0.0000
104 H      0.8720     1.0000     0.1280     0.9698     0.9698    -0.0000
105 H      0.8783     1.0000     0.1217     0.9786     0.9786    -0.0000
106 H      0.8820     1.0000     0.1180     0.9752     0.9752     0.0000
107 H      0.8825     1.0000     0.1175     0.9685     0.9685     0.0000
108 H      0.8920     1.0000     0.1080     0.9756     0.9756     0.0000
109 H      0.8896     1.0000     0.1104     0.9770     0.9770     0.0000
110 H      0.9241     1.0000     0.0759     0.9716     0.9716     0.0000
111 H      0.8656     1.0000     0.1344     0.9665     0.9665    -0.0000
112 H      0.8650     1.0000     0.1350     0.9660     0.9660    -0.0000
113 H      0.8820     1.0000     0.1180     0.9732     0.9732    -0.0000
114 H      0.8935     1.0000     0.1065     0.9752     0.9752     0.0000
115 H      0.8938     1.0000     0.1062     0.9766     0.9766     0.0000
116 H      0.8869     1.0000     0.1131     0.9707     0.9707    -0.0000
117 H      0.8978     1.0000     0.1022     0.9720     0.9720     0.0000
118 H      0.8938     1.0000     0.1062     0.9751     0.9751     0.0000
119 H      0.8944     1.0000     0.1056     0.9766     0.9766     0.0000
120 H      0.9255     1.0000     0.0745     0.9717     0.9717    -0.0000
121 H      0.8824     1.0000     0.1176     0.9732     0.9732    -0.0000
122 H      0.8660     1.0000     0.1340     0.9665     0.9665     0.0000
123 H      0.8647     1.0000     0.1353     0.9660     0.9660     0.0000
124 H      0.8945     1.0000     0.1055     0.9741     0.9741     0.0000
125 H      0.8932     1.0000     0.1068     0.9766     0.9766    -0.0000
126 H      0.8930     1.0000     0.1070     0.9714     0.9714     0.0000
127 H      0.8903     1.0000     0.1097     0.9692     0.9692     0.0000
128 H      0.8934     1.0000     0.1066     0.9783     0.9783    -0.0000
129 H      0.8954     1.0000     0.1046     0.9734     0.9734     0.0000
130 H      0.9247     1.0000     0.0753     0.9656     0.9656    -0.0000
131 H      0.8830     1.0000     0.1170     0.9747     0.9747    -0.0000
132 H      0.8716     1.0000     0.1284     0.9702     0.9702     0.0000
133 H      0.8672     1.0000     0.1328     0.9657     0.9657    -0.0000
134 H      0.8751     1.0000     0.1249     0.9714     0.9714    -0.0000
135 H      0.8716     1.0000     0.1284     0.9704     0.9704    -0.0000
136 H      0.8838     1.0000     0.1162     0.9748     0.9748    -0.0000

  Mayer bond orders larger than 0.100000
B(  0-Mg,  5-N ) :   0.4062 B(  0-Mg, 16-N ) :   0.5367 B(  0-Mg, 24-N ) :   0.4726 
B(  0-Mg, 32-N ) :   0.5390 B(  1-C ,  6-C ) :   1.3845 B(  1-C , 36-C ) :   1.2215 
B(  1-C , 40-C ) :   0.9291 B(  2-C ,  9-C ) :   1.5036 B(  2-C , 17-C ) :   1.2265 
B(  2-C , 65-H ) :   0.9301 B(  3-C , 20-C ) :   1.4801 B(  3-C , 25-C ) :   1.3047 
B(  3-C , 66-H ) :   0.8921 B(  4-C , 28-C ) :   1.3011 B(  4-C , 33-C ) :   1.4062 
B(  4-C , 67-H ) :   0.9220 B(  5-N ,  6-C ) :   1.0969 B(  5-N ,  9-C ) :   1.2966 
B(  6-C ,  7-C ) :   1.0271 B(  7-C ,  8-C ) :   0.9156 B(  7-C , 11-C ) :   0.8792 
B(  7-C , 68-H ) :   0.9699 B(  8-C ,  9-C ) :   0.9911 B(  8-C , 10-C ) :   0.8735 
B(  8-C , 69-H ) :   0.9677 B( 10-C , 70-H ) :   0.9764 B( 10-C , 71-H ) :   0.9744 
B( 10-C , 72-H ) :   0.9715 B( 11-C , 12-C ) :   0.9669 B( 11-C , 73-H ) :   0.9858 
B( 11-C , 74-H ) :   0.9585 B( 12-C , 13-C ) :   1.0087 B( 12-C , 75-H ) :   0.9635 
B( 12-C , 76-H ) :   0.9247 B( 13-C , 14-O ) :   1.9170 B( 13-C , 15-O ) :   1.2254 
B( 15-O , 45-C ) :   0.8439 B( 16-N , 17-C ) :   1.2863 B( 16-N , 20-C ) :   1.1469 
B( 17-C , 18-C ) :   1.1749 B( 18-C , 19-C ) :   1.6784 B( 18-C , 21-C ) :   0.8464 
B( 19-C , 20-C ) :   1.1346 B( 19-C , 22-C ) :   0.9851 B( 21-C , 77-H ) :   0.9706 
B( 21-C , 78-H ) :   1.0028 B( 21-C , 79-H ) :   0.9737 B( 22-C , 23-C ) :   1.8704 
B( 22-C , 80-H ) :   0.9478 B( 23-C , 81-H ) :   0.9695 B( 23-C , 82-H ) :   0.9675 
B( 24-N , 25-C ) :   1.2980 B( 24-N , 28-C ) :   1.1787 B( 25-C , 26-C ) :   1.2100 
B( 26-C , 27-C ) :   1.6658 B( 26-C , 29-C ) :   0.8724 B( 27-C , 28-C ) :   1.1782 
B( 27-C , 30-C ) :   0.8723 B( 29-C , 83-H ) :   0.9841 B( 29-C , 84-H ) :   0.9905 
B( 29-C , 85-H ) :   0.9793 B( 30-C , 31-C ) :   0.9808 B( 30-C , 86-H ) :   0.9729 
B( 30-C , 87-H ) :   1.0008 B( 31-C , 88-H ) :   0.9774 B( 31-C , 89-H ) :   0.9764 
B( 31-C , 90-H ) :   0.9752 B( 32-N , 33-C ) :   1.0819 B( 32-N , 36-C ) :   1.3565 
B( 33-C , 34-C ) :   1.3183 B( 34-C , 35-C ) :   1.5162 B( 34-C , 37-C ) :   0.8412 
B( 35-C , 36-C ) :   1.2264 B( 35-C , 38-C ) :   0.9148 B( 35-C , 39-O ) :  -0.1070 
B( 35-C , 40-C ) :  -0.1016 B( 37-C , 91-H ) :   0.9770 B( 37-C , 92-H ) :   0.9947 
B( 37-C , 93-H ) :   0.9747 B( 38-C , 39-O ) :   2.1722 B( 38-C , 40-C ) :   0.9677 
B( 40-C , 41-C ) :   0.9193 B( 40-C , 94-H ) :   0.9279 B( 41-C , 42-O ) :   1.9792 
B( 41-C , 43-O ) :   1.2117 B( 43-O , 44-C ) :   0.8812 B( 44-C , 95-H ) :   0.9718 
B( 44-C , 96-H ) :   0.9723 B( 44-C , 97-H ) :   0.9664 B( 45-C , 46-C ) :   0.9992 
B( 45-C , 98-H ) :   0.9539 B( 45-C , 99-H ) :   0.9812 B( 46-C , 47-C ) :   1.9000 
B( 46-C ,100-H ) :   0.9462 B( 47-C , 48-C ) :   0.9426 B( 47-C , 49-C ) :   0.9452 
B( 48-C ,101-H ) :   0.9695 B( 48-C ,102-H ) :   0.9639 B( 48-C ,103-H ) :   0.9819 
B( 49-C , 50-C ) :   0.9439 B( 49-C ,104-H ) :   0.9774 B( 49-C ,105-H ) :   0.9841 
B( 50-C , 51-C ) :   0.9770 B( 50-C ,106-H ) :   0.9771 B( 50-C ,107-H ) :   0.9758 
B( 51-C , 52-C ) :   0.9869 B( 51-C ,108-H ) :   0.9802 B( 51-C ,109-H ) :   0.9628 
B( 52-C , 53-C ) :   0.9199 B( 52-C , 54-C ) :   0.9866 B( 52-C ,110-H ) :   0.9700 
B( 53-C ,111-H ) :   0.9837 B( 53-C ,112-H ) :   0.9841 B( 53-C ,113-H ) :   0.9683 
B( 54-C , 55-C ) :   0.9851 B( 54-C ,114-H ) :   0.9839 B( 54-C ,115-H ) :   0.9630 
B( 55-C , 56-C ) :   0.9875 B( 55-C ,116-H ) :   0.9824 B( 55-C ,117-H ) :   0.9649 
B( 56-C , 57-C ) :   0.9885 B( 56-C ,118-H ) :   0.9842 B( 56-C ,119-H ) :   0.9625 
B( 57-C , 58-C ) :   0.9148 B( 57-C , 59-C ) :   0.9913 B( 57-C ,120-H ) :   0.9682 
B( 58-C ,121-H ) :   0.9688 B( 58-C ,122-H ) :   0.9838 B( 58-C ,123-H ) :   0.9842 
B( 59-C , 60-C ) :   0.9832 B( 59-C ,124-H ) :   0.9814 B( 59-C ,125-H ) :   0.9640 
B( 60-C , 61-C ) :   0.9764 B( 60-C ,126-H ) :   0.9722 B( 60-C ,127-H ) :   0.9768 
B( 61-C , 62-C ) :   0.9801 B( 61-C ,128-H ) :   0.9727 B( 61-C ,129-H ) :   0.9719 
B( 62-C , 63-C ) :   0.9542 B( 62-C , 64-C ) :   0.9726 B( 62-C ,130-H ) :   0.9715 
B( 63-C ,131-H ) :   0.9690 B( 63-C ,132-H ) :   0.9790 B( 63-C ,133-H ) :   0.9818 
B( 64-C ,134-H ) :   0.9812 B( 64-C ,135-H ) :   0.9836 B( 64-C ,136-H ) :   0.9697 


-------
TIMINGS
-------

Total SCF time: 0 days 4 hours 19 min 14 sec 

Total time                  ....   15554.536 sec
Sum of individual times     ....   14961.658 sec  ( 96.2%)

SCF preparation             ....      28.260 sec  (  0.2%)
Fock matrix formation       ....   14712.822 sec  ( 94.6%)
  Startup                   ....       1.854 sec  (  0.0% of F)
  Split-RI-J                ....     610.649 sec  (  4.2% of F)
  Chain of spheres X        ....   13195.020 sec  ( 89.7% of F)
  XC integration            ....     768.130 sec  (  5.2% of F)
    XC Preparation          ....       0.000 sec  (  0.0% of XC)
    Basis function eval.    ....     188.750 sec  ( 24.6% of XC)
    Density eval.           ....     377.610 sec  ( 49.2% of XC)
    XC-Functional eval.     ....      13.571 sec  (  1.8% of XC)
    XC-Potential eval.      ....     165.051 sec  ( 21.5% of XC)
  CPCM terms                ....     726.251 sec  (  4.9% of F)
Diagonalization             ....       0.000 sec  (  0.0%)
Density matrix formation    ....      14.647 sec  (  0.1%)
Total Energy calculation    ....      13.774 sec  (  0.1%)
Population analysis         ....       9.375 sec  (  0.1%)
Orbital Transformation      ....      15.991 sec  (  0.1%)
Orbital Orthonormalization  ....       0.000 sec  (  0.0%)
DIIS solution               ....      62.490 sec  (  0.4%)
SOSCF solution              ....      86.715 sec  (  0.6%)
Finished LeanSCF after 15581.3 sec

Maximum memory used throughout the entire LEANSCF-calculation: 674.4 MB


           ************************************************************
           *        Program running with 4 parallel MPI-processes     *
           *              working on a common directory               *
           ************************************************************

------------------------------------------------------------------------------
                         ORCA PROPERTY INTEGRAL CALCULATIONS
------------------------------------------------------------------------------

GBWName                                   ... tddft.gbw
Number of atoms                           ...    137
Number of basis functions                 ...   2448
Max core memory                           ...   2200 MB

Dipole integrals                          ... YES
Quadrupole integrals                      ...  NO
Linear momentum integrals                 ... YES
Angular momentum integrals                ... YES
Higher moments length integrals           ...  NO
Higher moments velocity integrals         ...  NO
Kinetic energy integrals                  ...  NO
GIAO right hand sides                     ...  NO
GIAO dipole derivative integrals          ...  NO
SOC integrals                             ...  NO
EPR diamagnetic integrals (GIAO)          ...  NO
EPR gauge integrals                       ...  NO
Field gradient integrals                  ...  NO (   0 nuclei)
Spin-dipole/Fermi contact integrals       ...  NO (   0 nuclei)
Contact density integrals                 ...  NO (   0 nuclei)
Nucleus-orbit integrals                   ...  NO (   0 nuclei)
Geometric perturbations                   ...  NO ( 137 nuclei)

Choice of electric origin   ... Center of mass
Position of electric origin ... ( -0.0351, -0.0377, -0.2776) 
Choice of magnetic origin   ... GIAO
Position of magnetic origin ... (  0.0000,  0.0000,  0.0000) 

Calculating integrals                     ... Electric Dipole (Length)     done (  1.8 sec)
Calculating integrals                     ... Linear Momentum              done (  3.6 sec)
Calculating integrals                     ... Angular Momentum  (ElOri)    done (  4.0 sec)

Property integrals calculated in   9.6 sec

Maximum memory used throughout the entire PROPINT-calculation: 471.7 MB


           ************************************************************
           *        Program running with 4 parallel MPI-processes     *
           *              working on a common directory               *
           ************************************************************
------------------------------------------------------------------------------
                          ORCA TD-DFT CALCULATION
------------------------------------------------------------------------------

Input orbitals are from        ... tddft.gbw
CI-vector output               ... tddft.cis
Solver                         ... FN-2001
Tamm-Dancoff approximation     ... deactivated
RPA-Integral strategy          ... AO-integrals
Integral handling              ... AO integral Direct
Max. core memory used          ... 2200 MB
Reference state                ... RHF
Generation of triplets         ... off
Follow IRoot                   ... off
Number of operators            ... 1
Orbital ranges used for CIS calculation:
 Operator 0:  Orbitals  65...240  to 241...2447
XAS localization array:
 Operator 0:  Orbitals  -1... -1

-------------------
XC-INTEGRATION GRID
-------------------

General Integration Accuracy     IntAcc      ... 3.467
Radial Grid Type                 RadialGrid  ... OptM3 with GC (2021)
Angular Grid (max. ang.)         AngularGrid ... 3 (Lebedev-194)
Angular grid pruning method      GridPruning ... 4 (adaptive)
Weight generation scheme         WeightScheme... mBecke (2022)
Basis function cutoff            BFCut       ... 1.0000e-11
Integration weight cutoff        WCut        ... 1.0000e-14
Partially contracted basis set               ... off
Rotationally invariant grid construction     ... off
Angular grids for H and He will be reduced by one unit

Total number of grid points                  ...   230376
Total number of batches                      ...     3674
Average number of points per batch           ...       62
Average number of grid points per atom       ...     1682

---------------------
COSX-INTEGRATION GRID
---------------------

General Integration Accuracy     IntAcc      ... 3.067
Radial Grid Type                 RadialGrid  ... OptM3 with GC (2021)
Angular Grid (max. ang.)         AngularGrid ... 2 (Lebedev-110)
Angular grid pruning method      GridPruning ... 4 (adaptive)
Weight generation scheme         WeightScheme... mBecke (2022)
Basis function cutoff            BFCut       ... 1.0000e-11
Integration weight cutoff        WCut        ... 1.0000e-14
Partially contracted basis set               ... on
Rotationally invariant grid construction     ... off
Angular grids for H and He will be reduced by one unit

Total number of grid points                  ...    90751
Total number of batches                      ...      785
Average number of points per batch           ...      115
Average number of grid points per atom       ...      662

---------------
TD-DFT XC SETUP
---------------

DFT calculation                         ... on
Name of the grid file                   ... tddft.grid_cis.tmp
RI-approximation                        ... on
Aux-basis dimension                     ... 0
Exchange functional (TD-DFT)            ... WB97X-D3
Correlation functional (TD-DFT)         ... WB97X-D3
Hybrid DFT                              ... on
   Exchange mixing (TD-DFT)             ...  0.196
   GGA exch. scaling (TD-DFT)           ...  0.000
   GGA corr. scaling (TD-DFT)           ...  1.000
Range-Separated Exchange                ... on
   Range Range separation parameter mu  .... 0.250
   Max. amount of RS exchange (TD-DFT)  ...  0.804

Building densities             ... done
Calculating rho(r) on the grid ... done
Building xc-kernel on the grid ... done
                    *** TD-DFT CALCULATION INITIALIZED ***

---------------------------------
    LR-CPCM (non-equilibrium)
---------------------------------

Setting up CPCM data             ... done

-------------------
RPA-DIAGONALIZATION
-------------------

Dimension of the (A+B)(A-B) eigenvalue problem ... 388432
Number of roots to be determined               ...     30
Maximum size of the expansion space            ...    900
Convergence tolerance for the residual         ...    2.500e-07
Convergence tolerance for the energies         ...    2.500e-07
Orthogonality tolerance                        ...    1.000e-14
Constructing the preconditioner                ... o.k.
Building the initial guess                     ... o.k.
Number of trial vectors determined             ...    900


                       ****Iteration    0****
   Time for iteration     :  TOTAL=21427.0 TRAFO=95.3 RIJ=1120.5 COSX=15534.1 XC=1874.8 CPCM=2712.9
   Size of expansion space: 90
   Lowest Energy          :     0.087935644984
   Maximum Energy change  :     0.240987813897 (vector 29)
   Maximum residual norm  :     0.044523569113

                       ****Iteration    1****
   Time for iteration     :  TOTAL=5890.9 TRAFO=34.7 RIJ=329.3 COSX=4152.7 XC=527.8 CPCM=825.4
   Size of expansion space: 120
   Lowest Energy          :     0.073560101679
   Maximum Energy change  :     0.019268815934 (vector 2)
   Maximum residual norm  :     0.008928849816

                       ****Iteration    2****
   Time for iteration     :  TOTAL=5791.0 TRAFO=31.0 RIJ=337.8 COSX=4065.5 XC=525.4 CPCM=818.6
   Size of expansion space: 150
   Lowest Energy          :     0.071315743408
   Maximum Energy change  :     0.007897816508 (vector 29)
   Maximum residual norm  :     0.004035077718

                       ****Iteration    3****
   Time for iteration     :  TOTAL=5144.8 TRAFO=25.5 RIJ=335.2 COSX=3625.6 XC=419.0 CPCM=722.8
   Size of expansion space: 180
   Lowest Energy          :     0.070977033551
   Maximum Energy change  :     0.003301862283 (vector 29)
   Maximum residual norm  :     0.002209386684

                       ****Iteration    4****
   Time for iteration     :  TOTAL=4660.4 TRAFO=20.7 RIJ=316.0 COSX=3211.7 XC=386.3 CPCM=714.1
   Size of expansion space: 210
   Lowest Energy          :     0.070928260549
   Maximum Energy change  :     0.003670000656 (vector 29)
   Maximum residual norm  :     0.000679184790

                       ****Iteration    5****
   Time for iteration     :  TOTAL=4127.4 TRAFO=22.8 RIJ=306.8 COSX=2734.4 XC=361.2 CPCM=693.6
   Size of expansion space: 240
   Lowest Energy          :     0.070924527079
   Maximum Energy change  :     0.000944197190 (vector 28)
   Maximum residual norm  :     0.000275492964

                       ****Iteration    6****
   Time for iteration     :  TOTAL=2602.1 TRAFO=14.3 RIJ=242.1 COSX=1637.2 XC=167.0 CPCM=534.6
   Size of expansion space: 270
   Lowest Energy          :     0.070922380967
   Maximum Energy change  :     0.000384938857 (vector 28)
   Maximum residual norm  :     0.000114240199

                       ****Iteration    7****
   Time for iteration     :  TOTAL=2656.7 TRAFO=14.9 RIJ=242.5 COSX=1669.8 XC=168.8 CPCM=553.7
   Size of expansion space: 300
   Lowest Energy          :     0.070922167062
   Maximum Energy change  :     0.000086206076 (vector 28)
   Maximum residual norm  :     0.000027786943

                       ****Iteration    8****
   Time for iteration     :  TOTAL=2656.7 TRAFO=14.4 RIJ=238.1 COSX=1708.8 XC=163.0 CPCM=525.8
   Size of expansion space: 330
   Lowest Energy          :     0.070922146515
   Maximum Energy change  :     0.000063217520 (vector 26)
   Maximum residual norm  :     0.000056968937

                       ****Iteration    9****
   Time for iteration     :  TOTAL=2647.8 TRAFO=14.0 RIJ=239.3 COSX=1703.0 XC=166.5 CPCM=518.4
   Size of expansion space: 360
   Lowest Energy          :     0.070922138723
   Maximum Energy change  :     0.000895173137 (vector 29)
   Maximum residual norm  :     0.000581035149

                       ****Iteration   10****
   Time for iteration     :  TOTAL=2669.7 TRAFO=14.2 RIJ=248.6 COSX=1709.0 XC=167.4 CPCM=523.9
   Size of expansion space: 390
   Lowest Energy          :     0.070922138323
   Maximum Energy change  :     0.000507164849 (vector 29)
   Maximum residual norm  :     0.000107481749

                       ****Iteration   11****
   Time for iteration     :  TOTAL=2641.7 TRAFO=13.9 RIJ=230.8 COSX=1720.8 XC=162.3 CPCM=507.3
   Size of expansion space: 420
   Lowest Energy          :     0.070922138082
   Maximum Energy change  :     0.000113059205 (vector 28)
   Maximum residual norm  :     0.000028400655

                       ****Iteration   12****
   Time for iteration     :  TOTAL=2547.3 TRAFO=14.2 RIJ=249.2 COSX=1589.0 XC=164.1 CPCM=524.5
   Size of expansion space: 450
   Lowest Energy          :     0.070922138059
   Maximum Energy change  :     0.000027804957 (vector 28)
   Maximum residual norm  :     0.000012155705

                       ****Iteration   13****
   Time for iteration     :  TOTAL=2446.6 TRAFO=13.5 RIJ=231.2 COSX=1537.1 XC=153.5 CPCM=505.1
   Size of expansion space: 480
   Lowest Energy          :     0.070922138055
   Maximum Energy change  :     0.000007301873 (vector 28)
   Maximum residual norm  :     0.000001664672

                       ****Iteration   14****
   Time for iteration     :  TOTAL=2448.7 TRAFO=13.6 RIJ=231.9 COSX=1537.4 XC=154.8 CPCM=504.9
   Size of expansion space: 510
   Lowest Energy          :     0.070922138054
   Maximum Energy change  :     0.000001569639 (vector 28)
   Maximum residual norm  :     0.000000779458

                       ****Iteration   15****
   Time for iteration     :  TOTAL=2459.2 TRAFO=13.7 RIJ=232.5 COSX=1546.9 XC=154.7 CPCM=505.4
   Size of expansion space: 540
   Lowest Energy          :     0.070922138054
   Maximum Energy change  :     0.000000410149 (vector 28)
   Maximum residual norm  :     0.000000100552

      *** CONVERGENCE OF RESIDUAL NORM REACHED ***

Storing the converged CI vectors               ... tddft.cis1

                 *** DAVIDSON DONE ***

Total time for solving the RPA problem: 74141.001sec

--------------------------------
TD-DFT EXCITED STATES (SINGLETS)
--------------------------------

the weight of the individual excitations are printed if larger than 1.0e-02

STATE  1:  E=   0.070922 au      1.930 eV    15565.6 cm**-1 <S**2> =   0.000000 Mult 1
   239a -> 241a  :     0.010242 
   239a -> 242a  :     0.092602 
   240a -> 241a  :     0.857865 

STATE  2:  E=   0.090745 au      2.469 eV    19916.3 cm**-1 <S**2> =   0.000000 Mult 1
   239a -> 241a  :     0.703777 
   240a -> 241a  :     0.018496 
   240a -> 242a  :     0.233862 

STATE  3:  E=   0.119600 au      3.254 eV    26249.2 cm**-1 <S**2> =   0.000000 Mult 1
   238a -> 241a  :     0.020806 
   239a -> 241a  :     0.215221 
   239a -> 242a  :     0.010103 
   240a -> 242a  :     0.701321 

STATE  4:  E=   0.129612 au      3.527 eV    28446.4 cm**-1 <S**2> =   0.000000 Mult 1
   237a -> 241a  :     0.042424 
   238a -> 241a  :     0.618676 
   238a -> 242a  :     0.085289 
   238a -> 243a  :     0.021127 
   239a -> 241a  :     0.010185 
   239a -> 242a  :     0.138866 
   240a -> 241a  :     0.012623 

STATE  5:  E=   0.133371 au      3.629 eV    29271.6 cm**-1 <S**2> =   0.000000 Mult 1
   234a -> 241a  :     0.011426 
   235a -> 241a  :     0.017074 
   237a -> 242a  :     0.018664 
   238a -> 241a  :     0.107427 
   239a -> 241a  :     0.019536 
   239a -> 242a  :     0.645596 
   239a -> 243a  :     0.020932 
   240a -> 241a  :     0.082220 
   240a -> 242a  :     0.012986 

STATE  6:  E=   0.143114 au      3.894 eV    31409.9 cm**-1 <S**2> =   0.000000 Mult 1
   235a -> 241a  :     0.045958 
   237a -> 241a  :     0.730925 
   237a -> 242a  :     0.067446 
   238a -> 241a  :     0.064586 
   238a -> 242a  :     0.031105 

STATE  7:  E=   0.151832 au      4.132 eV    33323.3 cm**-1 <S**2> =   0.000000 Mult 1
   233a -> 241a  :     0.342803 
   233a -> 242a  :     0.035376 
   233a -> 243a  :     0.302108 
   233a -> 244a  :     0.028139 
   233a -> 249a  :     0.016268 
   234a -> 241a  :     0.103762 
   234a -> 243a  :     0.076981 

STATE  8:  E=   0.155179 au      4.223 eV    34057.9 cm**-1 <S**2> =   0.000000 Mult 1
   235a -> 241a  :     0.725573 
   235a -> 242a  :     0.076102 
   237a -> 241a  :     0.047600 
   238a -> 242a  :     0.012740 
   239a -> 242a  :     0.020638 
   240a -> 243a  :     0.039649 

STATE  9:  E=   0.160619 au      4.371 eV    35251.8 cm**-1 <S**2> =   0.000000 Mult 1
   232a -> 241a  :     0.026774 
   233a -> 241a  :     0.011536 
   235a -> 241a  :     0.063372 
   239a -> 242a  :     0.017244 
   239a -> 243a  :     0.146627 
   240a -> 243a  :     0.644612 
   240a -> 244a  :     0.010643 

STATE 10:  E=   0.168598 au      4.588 eV    37003.0 cm**-1 <S**2> =   0.000000 Mult 1
   235a -> 242a  :     0.011248 
   237a -> 241a  :     0.092803 
   237a -> 242a  :     0.597008 
   237a -> 249a  :     0.021093 
   238a -> 242a  :     0.184808 

STATE 11:  E=   0.173300 au      4.716 eV    38034.9 cm**-1 <S**2> =   0.000000 Mult 1
   230a -> 241a  :     0.021498 
   232a -> 241a  :     0.031722 
   233a -> 241a  :     0.035959 
   234a -> 241a  :     0.151144 
   237a -> 242a  :     0.030747 
   239a -> 243a  :     0.497309 
   240a -> 243a  :     0.128445 
   240a -> 244a  :     0.013140 

STATE 12:  E=   0.173691 au      4.726 eV    38120.7 cm**-1 <S**2> =   0.000000 Mult 1
   217a -> 242a  :     0.015125 
   223a -> 242a  :     0.012901 
   226a -> 241a  :     0.012546 
   229a -> 241a  :     0.037016 
   230a -> 241a  :     0.758749 
   231a -> 241a  :     0.020277 
   233a -> 241a  :     0.018059 
   239a -> 243a  :     0.020416 

STATE 13:  E=   0.180456 au      4.910 eV    39605.6 cm**-1 <S**2> =   0.000000 Mult 1
   232a -> 241a  :     0.011895 
   232a -> 242a  :     0.062134 
   233a -> 241a  :     0.099303 
   234a -> 241a  :     0.479079 
   235a -> 242a  :     0.056283 
   238a -> 242a  :     0.032292 
   239a -> 242a  :     0.025883 
   239a -> 243a  :     0.110839 
   240a -> 244a  :     0.018944 

STATE 14:  E=   0.189521 au      5.157 eV    41595.0 cm**-1 <S**2> =   0.000000 Mult 1
   217a -> 241a  :     0.016894 
   223a -> 241a  :     0.012742 
   230a -> 242a  :     0.032433 
   232a -> 241a  :     0.641557 
   239a -> 243a  :     0.028073 
   240a -> 243a  :     0.049466 
   240a -> 244a  :     0.041255 
   240a -> 245a  :     0.039447 

STATE 15:  E=   0.190591 au      5.186 eV    41829.8 cm**-1 <S**2> =   0.000000 Mult 1
   232a -> 241a  :     0.049751 
   240a -> 244a  :     0.027482 
   240a -> 245a  :     0.832011 
   240a -> 246a  :     0.014117 

STATE 16:  E=   0.191688 au      5.216 eV    42070.7 cm**-1 <S**2> =   0.000000 Mult 1
   230a -> 242a  :     0.015779 
   234a -> 242a  :     0.022969 
   237a -> 241a  :     0.011881 
   237a -> 242a  :     0.171252 
   238a -> 241a  :     0.079650 
   238a -> 242a  :     0.453075 
   238a -> 249a  :     0.012289 
   240a -> 244a  :     0.060390 
   240a -> 245a  :     0.023135 

STATE 17:  E=   0.193116 au      5.255 eV    42384.1 cm**-1 <S**2> =   0.000000 Mult 1
   214a -> 241a  :     0.011811 
   217a -> 241a  :     0.161651 
   223a -> 241a  :     0.156771 
   226a -> 241a  :     0.108436 
   229a -> 242a  :     0.013980 
   230a -> 242a  :     0.292304 
   232a -> 241a  :     0.073467 
   233a -> 242a  :     0.016851 
   238a -> 242a  :     0.022966 

STATE 18:  E=   0.198794 au      5.409 eV    43630.2 cm**-1 <S**2> =   0.000000 Mult 1
   223a -> 241a  :     0.011403 
   232a -> 241a  :     0.025954 
   232a -> 243a  :     0.011525 
   234a -> 241a  :     0.015250 
   234a -> 242a  :     0.025556 
   234a -> 243a  :     0.015968 
   237a -> 242a  :     0.011476 
   238a -> 241a  :     0.010971 
   238a -> 242a  :     0.071313 
   238a -> 244a  :     0.015462 
   239a -> 243a  :     0.020818 
   239a -> 244a  :     0.057569 
   240a -> 244a  :     0.559825 
   240a -> 245a  :     0.028595 
   240a -> 251a  :     0.014429 

STATE 19:  E=   0.200906 au      5.467 eV    44093.7 cm**-1 <S**2> =   0.000000 Mult 1
   239a -> 244a  :     0.071891 
   239a -> 245a  :     0.781365 

STATE 20:  E=   0.203591 au      5.540 eV    44683.1 cm**-1 <S**2> =   0.000000 Mult 1
   223a -> 241a  :     0.026348 
   226a -> 241a  :     0.041360 
   232a -> 242a  :     0.010535 
   233a -> 242a  :     0.022589 
   234a -> 242a  :     0.120682 
   235a -> 242a  :     0.245053 
   235a -> 243a  :     0.024235 
   238a -> 244a  :     0.018359 
   239a -> 244a  :     0.191364 
   239a -> 245a  :     0.072863 
   240a -> 246a  :     0.023935 
   240a -> 249a  :     0.032494 

STATE 21:  E=   0.204821 au      5.573 eV    44953.1 cm**-1 <S**2> =   0.000000 Mult 1
   213a -> 241a  :     0.015228 
   217a -> 241a  :     0.104443 
   223a -> 241a  :     0.062560 
   226a -> 241a  :     0.468271 
   226a -> 244a  :     0.011024 
   229a -> 241a  :     0.038747 
   233a -> 241a  :     0.024732 
   233a -> 243a  :     0.016094 
   234a -> 242a  :     0.011505 
   235a -> 242a  :     0.049553 
   239a -> 244a  :     0.015381 

STATE 22:  E=   0.208625 au      5.677 eV    45787.9 cm**-1 <S**2> =   0.000000 Mult 1
   234a -> 241a  :     0.021196 
   235a -> 241a  :     0.022733 
   235a -> 242a  :     0.292970 
   235a -> 243a  :     0.075630 
   239a -> 244a  :     0.269688 
   239a -> 245a  :     0.020370 
   239a -> 246a  :     0.024830 
   239a -> 249a  :     0.017939 
   239a -> 250a  :     0.051720 
   240a -> 244a  :     0.026888 
   240a -> 246a  :     0.023766 
   240a -> 251a  :     0.011439 

STATE 23:  E=   0.212212 au      5.775 eV    46575.1 cm**-1 <S**2> =   0.000000 Mult 1
   223a -> 241a  :     0.028141 
   233a -> 242a  :     0.014382 
   234a -> 242a  :     0.243082 
   234a -> 243a  :     0.040277 
   235a -> 242a  :     0.062534 
   235a -> 243a  :     0.054923 
   238a -> 244a  :     0.021585 
   239a -> 246a  :     0.097632 
   239a -> 249a  :     0.020580 
   239a -> 250a  :     0.037836 
   240a -> 244a  :     0.065608 
   240a -> 246a  :     0.042690 
   240a -> 249a  :     0.095708 
   240a -> 251a  :     0.016933 

STATE 24:  E=   0.213807 au      5.818 eV    46925.2 cm**-1 <S**2> =   0.000000 Mult 1
   232a -> 242a  :     0.045407 
   234a -> 242a  :     0.052720 
   234a -> 244a  :     0.010803 
   234a -> 246a  :     0.018057 
   235a -> 242a  :     0.027038 
   235a -> 243a  :     0.022807 
   238a -> 244a  :     0.015341 
   239a -> 244a  :     0.011752 
   239a -> 246a  :     0.114892 
   239a -> 249a  :     0.019162 
   239a -> 250a  :     0.018906 
   240a -> 246a  :     0.196102 
   240a -> 248a  :     0.060877 
   240a -> 250a  :     0.263056 

STATE 25:  E=   0.214021 au      5.824 eV    46972.2 cm**-1 <S**2> =   0.000000 Mult 1
   228a -> 246a  :     0.015496 
   232a -> 242a  :     0.010191 
   234a -> 243a  :     0.010326 
   235a -> 243a  :     0.077316 
   235a -> 244a  :     0.018474 
   237a -> 243a  :     0.018516 
   238a -> 243a  :     0.012472 
   238a -> 244a  :     0.091222 
   239a -> 244a  :     0.042789 
   239a -> 246a  :     0.086132 
   239a -> 250a  :     0.011671 
   240a -> 246a  :     0.123454 
   240a -> 248a  :     0.063656 
   240a -> 249a  :     0.037045 
   240a -> 250a  :     0.194529 
   240a -> 251a  :     0.012286 

STATE 26:  E=   0.216139 au      5.881 eV    47437.1 cm**-1 <S**2> =   0.000000 Mult 1
   217a -> 241a  :     0.023255 
   223a -> 241a  :     0.017692 
   226a -> 241a  :     0.020928 
   228a -> 241a  :     0.018596 
   228a -> 243a  :     0.014363 
   228a -> 246a  :     0.073141 
   230a -> 242a  :     0.083498 
   230a -> 243a  :     0.018249 
   232a -> 242a  :     0.017662 
   232a -> 243a  :     0.014031 
   233a -> 242a  :     0.030087 
   233a -> 246a  :     0.012800 
   235a -> 242a  :     0.013569 
   235a -> 243a  :     0.091234 
   235a -> 244a  :     0.013123 
   237a -> 244a  :     0.025954 
   238a -> 243a  :     0.029267 
   238a -> 244a  :     0.099271 
   239a -> 246a  :     0.013042 
   239a -> 249a  :     0.034108 
   239a -> 250a  :     0.018116 
   240a -> 248a  :     0.015264 
   240a -> 249a  :     0.061677 
   240a -> 250a  :     0.036698 
   240a -> 251a  :     0.028738 

STATE 27:  E=   0.216481 au      5.891 eV    47512.1 cm**-1 <S**2> =   0.000000 Mult 1
   217a -> 241a  :     0.046637 
   223a -> 241a  :     0.102828 
   223a -> 242a  :     0.017147 
   226a -> 241a  :     0.039621 
   226a -> 243a  :     0.015406 
   228a -> 246a  :     0.020236 
   230a -> 242a  :     0.205004 
   230a -> 243a  :     0.042325 
   232a -> 242a  :     0.011202 
   233a -> 242a  :     0.092654 
   233a -> 243a  :     0.017389 
   235a -> 243a  :     0.012266 
   238a -> 243a  :     0.011822 
   238a -> 244a  :     0.034109 
   239a -> 246a  :     0.022456 
   240a -> 249a  :     0.105404 
   240a -> 251a  :     0.025599 

STATE 28:  E=   0.217590 au      5.921 eV    47755.4 cm**-1 <S**2> =   0.000000 Mult 1
   217a -> 241a  :     0.012936 
   228a -> 241a  :     0.012701 
   228a -> 243a  :     0.014546 
   228a -> 246a  :     0.080115 
   232a -> 242a  :     0.025660 
   235a -> 242a  :     0.036788 
   235a -> 243a  :     0.078660 
   235a -> 244a  :     0.019415 
   237a -> 243a  :     0.021669 
   237a -> 244a  :     0.018851 
   238a -> 243a  :     0.030053 
   238a -> 244a  :     0.165655 
   239a -> 246a  :     0.023121 
   239a -> 250a  :     0.046015 
   240a -> 246a  :     0.059348 
   240a -> 248a  :     0.014557 
   240a -> 249a  :     0.011746 
   240a -> 250a  :     0.117548 
   240a -> 251a  :     0.035316 

STATE 29:  E=   0.218812 au      5.954 eV    48023.6 cm**-1 <S**2> =   0.000000 Mult 1
   228a -> 241a  :     0.044191 
   228a -> 243a  :     0.067286 
   228a -> 244a  :     0.024879 
   228a -> 246a  :     0.355664 
   228a -> 249a  :     0.014192 
   232a -> 246a  :     0.013837 
   234a -> 241a  :     0.010517 
   234a -> 243a  :     0.019608 
   235a -> 243a  :     0.124013 
   235a -> 244a  :     0.017114 
   237a -> 243a  :     0.011548 
   239a -> 249a  :     0.011604 
   239a -> 250a  :     0.012554 
   240a -> 246a  :     0.040121 
   240a -> 250a  :     0.021968 
   240a -> 251a  :     0.027752 

STATE 30:  E=   0.218990 au      5.959 eV    48062.7 cm**-1 <S**2> =   0.000000 Mult 1
   209a -> 241a  :     0.015808 
   226a -> 241a  :     0.041455 
   226a -> 242a  :     0.064624 
   229a -> 242a  :     0.013373 
   230a -> 241a  :     0.022551 
   230a -> 242a  :     0.070474 
   233a -> 241a  :     0.232578 
   233a -> 242a  :     0.026208 
   233a -> 243a  :     0.202719 
   233a -> 244a  :     0.035282 
   233a -> 249a  :     0.020870 
   234a -> 241a  :     0.038577 
   234a -> 243a  :     0.031196 
   235a -> 243a  :     0.016077 


-----------------------------
 TD-DFT-EXCITATION SPECTRA
-----------------------------

Center of mass = ( -0.0351, -0.0377, -0.2776)
Generating RPA transition densities
 done

----------------------------------------------------------------------------------------------------
                     ABSORPTION SPECTRUM VIA TRANSITION ELECTRIC DIPOLE MOMENTS    
----------------------------------------------------------------------------------------------------
     Transition      Energy     Energy  Wavelength fosc(D2)      D2        DX        DY        DZ   
                      (eV)      (cm-1)    (nm)                 (au**2)    (au)      (au)      (au)  
----------------------------------------------------------------------------------------------------
  0-1A  ->  1-1A    1.929889   15565.6   642.4   0.360409692   7.62265  -0.44345  -1.96578   1.88725
  0-1A  ->  2-1A    2.469311   19916.3   502.1   0.088953270   1.47037  -0.76274   0.91176  -0.23937
  0-1A  ->  3-1A    3.254483   26249.2   381.0   1.303765686  16.35157   3.26827  -2.34546  -0.41083
  0-1A  ->  4-1A    3.526910   28446.4   351.5   0.454029023   5.25450  -0.38166   1.85445  -1.29222
  0-1A  ->  5-1A    3.629217   29271.6   341.6   0.992161815  11.15865  -1.20945  -2.02858   2.36236
  0-1A  ->  6-1A    3.894333   31409.9   318.4   0.016265221   0.17048   0.30083   0.08889  -0.26848
  0-1A  ->  7-1A    4.131560   33323.3   300.1   0.002569027   0.02538   0.15848  -0.01210   0.01083
  0-1A  ->  8-1A    4.222635   34057.9   293.6   0.196614920   1.90053  -1.19735   0.41699   0.54131
  0-1A  ->  9-1A    4.370671   35251.8   283.7   0.119577650   1.11672  -0.97872   0.34434   0.20066
  0-1A  -> 10-1A    4.587793   37003.0   270.2   0.110056497   0.97916   0.05999  -0.75631   0.63526
  0-1A  -> 11-1A    4.715722   38034.9   262.9   0.064749913   0.56044   0.60178  -0.02039  -0.44485
  0-1A  -> 12-1A    4.726361   38120.7   262.3   0.004489748   0.03877  -0.06840  -0.11784   0.14216
  0-1A  -> 13-1A    4.910467   39605.6   252.5   0.100286037   0.83360   0.35932   0.54535  -0.63803
  0-1A  -> 14-1A    5.157121   41595.0   240.4   0.032970714   0.26095  -0.41137   0.07155   0.29430
  0-1A  -> 15-1A    5.186237   41829.8   239.1   0.010354909   0.08150   0.20383  -0.02173  -0.19869
  0-1A  -> 16-1A    5.216096   42070.7   237.7   0.059169752   0.46302   0.21412   0.38209  -0.52074
  0-1A  -> 17-1A    5.254959   42384.1   235.9   0.019554565   0.15189   0.20815   0.15121  -0.29274
  0-1A  -> 18-1A    5.409460   43630.2   229.2   0.245071119   1.84918  -0.88563   0.96720  -0.35966
  0-1A  -> 19-1A    5.466922   44093.7   226.8   0.001713757   0.01280   0.04643  -0.10134  -0.01924
  0-1A  -> 20-1A    5.539992   44683.1   223.8   0.022365034   0.16478  -0.03773  -0.23420   0.32940
  0-1A  -> 21-1A    5.573476   44953.1   222.5   0.002511626   0.01839  -0.03561   0.04370  -0.12335
  0-1A  -> 22-1A    5.676973   45787.9   218.4   0.097979109   0.70446  -0.20547   0.71591  -0.38693
  0-1A  -> 23-1A    5.774582   46575.1   214.7   0.026414787   0.18671   0.26403  -0.32252  -0.11391
  0-1A  -> 24-1A    5.817981   46925.2   213.1   0.009116571   0.06396   0.08853  -0.23633  -0.01640
  0-1A  -> 25-1A    5.823814   46972.2   212.9   0.164335572   1.15177  -0.40023   0.87747  -0.47079
  0-1A  -> 26-1A    5.881451   47437.1   210.8   0.019314463   0.13404  -0.24589  -0.02337   0.27024
  0-1A  -> 27-1A    5.890743   47512.1   210.5   0.003974572   0.02754  -0.01225  -0.04577   0.15904
  0-1A  -> 28-1A    5.920917   47755.4   209.4   0.200351289   1.38116  -0.99432   0.62648   0.00408
  0-1A  -> 29-1A    5.954171   48023.6   208.2   0.083685277   0.57368   0.51723  -0.54472   0.09716
  0-1A  -> 30-1A    5.959019   48062.7   208.1   0.008836091   0.06052  -0.16600   0.17034  -0.06286

----------------------------------------------------------------------------------------------------
                     ABSORPTION SPECTRUM VIA TRANSITION VELOCITY DIPOLE MOMENTS    
----------------------------------------------------------------------------------------------------
     Transition      Energy     Energy  Wavelength fosc(P2)      P2        PX        PY        PZ   
                      (eV)      (cm-1)    (nm)                 (au**2)    (au)      (au)      (au)  
----------------------------------------------------------------------------------------------------
  0-1A  ->  1-1A    1.929889   15565.6   642.4   0.357823297   0.03807   0.03148   0.13874  -0.13351
  0-1A  ->  2-1A    2.469311   19916.3   502.1   0.088651990   0.01207   0.06922  -0.08253   0.02158
  0-1A  ->  3-1A    3.254483   26249.2   381.0   1.295947073   0.23249  -0.38953   0.28002   0.04847
  0-1A  ->  4-1A    3.526910   28446.4   351.5   0.451199681   0.08772   0.04853  -0.23950   0.16735
  0-1A  ->  5-1A    3.629217   29271.6   341.6   0.985852415   0.19723   0.16071   0.26954  -0.31424
  0-1A  ->  6-1A    3.894333   31409.9   318.4   0.016237589   0.00349  -0.04362  -0.01186   0.03797
  0-1A  ->  7-1A    4.131560   33323.3   300.1   0.002561984   0.00058  -0.02403   0.00206  -0.00126
  0-1A  ->  8-1A    4.222635   34057.9   293.6   0.196597904   0.04576   0.18585  -0.06415  -0.08429
  0-1A  ->  9-1A    4.370671   35251.8   283.7   0.120128446   0.02894   0.15762  -0.05525  -0.03232
  0-1A  -> 10-1A    4.587793   37003.0   270.2   0.109550434   0.02771  -0.01049   0.12726  -0.10677
  0-1A  -> 11-1A    4.715722   38034.9   262.9   0.064128351   0.01667  -0.10385   0.00360   0.07664
  0-1A  -> 12-1A    4.726361   38120.7   262.3   0.004427400   0.00115   0.01145   0.02048  -0.02456
  0-1A  -> 13-1A    4.910467   39605.6   252.5   0.099963892   0.02706  -0.06526  -0.09807   0.11481
  0-1A  -> 14-1A    5.157121   41595.0   240.4   0.033083764   0.00941   0.07819  -0.01362  -0.05573
  0-1A  -> 15-1A    5.186237   41829.8   239.1   0.010571463   0.00302  -0.03936   0.00462   0.03810
  0-1A  -> 16-1A    5.216096   42070.7   237.7   0.058838340   0.01692  -0.04114  -0.07314   0.09938
  0-1A  -> 17-1A    5.254959   42384.1   235.9   0.019567391   0.00567  -0.04044  -0.02929   0.05635
  0-1A  -> 18-1A    5.409460   43630.2   229.2   0.243034745   0.07247   0.17559  -0.19119   0.07131
  0-1A  -> 19-1A    5.466922   44093.7   226.8   0.001774706   0.00053  -0.00845   0.02107   0.00444
  0-1A  -> 20-1A    5.539992   44683.1   223.8   0.022547138   0.00689   0.00846   0.04770  -0.06737
  0-1A  -> 21-1A    5.573476   44953.1   222.5   0.002630441   0.00081   0.00785  -0.00837   0.02601
  0-1A  -> 22-1A    5.676973   45787.9   218.4   0.096966832   0.03034   0.04297  -0.14863   0.08004
  0-1A  -> 23-1A    5.774582   46575.1   214.7   0.026277133   0.00836  -0.05592   0.06811   0.02447
  0-1A  -> 24-1A    5.817981   46925.2   213.1   0.008970547   0.00288  -0.01955   0.04974   0.00459
  0-1A  -> 25-1A    5.823814   46972.2   212.9   0.162522941   0.05218   0.08578  -0.18644   0.10028
  0-1A  -> 26-1A    5.881451   47437.1   210.8   0.019576343   0.00635   0.05353   0.00630  -0.05867
  0-1A  -> 27-1A    5.890743   47512.1   210.5   0.004175046   0.00136   0.00290   0.01018  -0.03527
  0-1A  -> 28-1A    5.920917   47755.4   209.4   0.199450712   0.06510   0.21623  -0.13544  -0.00066
  0-1A  -> 29-1A    5.954171   48023.6   208.2   0.082080193   0.02694  -0.11144   0.11860  -0.02137
  0-1A  -> 30-1A    5.959019   48062.7   208.1   0.008622720   0.00283   0.03571  -0.03712   0.01338

------------------------------------------------------------------------------------------
                     CD SPECTRUM VIA TRANSITION ELECTRIC DIPOLE MOMENTS    
------------------------------------------------------------------------------------------
     Transition      Energy     Energy  Wavelength    R        MX        MY        MZ   
                      (eV)      (cm-1)    (nm)   (1e40*cgs)   (au)      (au)      (au)  
------------------------------------------------------------------------------------------
  0-1A  ->  1-1A    1.929889   15565.6   642.4  -16.78079   0.54046   1.34045   1.54208
  0-1A  ->  2-1A    2.469311   19916.3   502.1    2.68147   0.11113   0.01736  -0.26423
  0-1A  ->  3-1A    3.254483   26249.2   381.0   45.16721  -0.07876  -0.33231   1.50383
  0-1A  ->  4-1A    3.526910   28446.4   351.5   43.63193   0.12776  -0.72451  -1.00586
  0-1A  ->  5-1A    3.629217   29271.6   341.6   18.70350   0.26432   1.98665   1.82449
  0-1A  ->  6-1A    3.894333   31409.9   318.4    2.65804  -0.29931  -0.57587  -0.50504
  0-1A  ->  7-1A    4.131560   33323.3   300.1   -1.48147  -0.02709  -0.37867   0.26369
  0-1A  ->  8-1A    4.222635   34057.9   293.6    2.40217  -0.12543   0.32119  -0.53427
  0-1A  ->  9-1A    4.370671   35251.8   283.7   17.09475   0.01498   0.12752  -0.32647
  0-1A  -> 10-1A    4.587793   37003.0   270.2   -2.36967   0.34693   1.00053   1.16632
  0-1A  -> 11-1A    4.715722   38034.9   262.9   19.09464  -0.01368  -0.38078   0.09000
  0-1A  -> 12-1A    4.726361   38120.7   262.3  -20.77332  -0.08063  -0.01610   0.25781
  0-1A  -> 13-1A    4.910467   39605.6   252.5   22.28943   0.22143  -0.31583  -0.07115
  0-1A  -> 14-1A    5.157121   41595.0   240.4    1.36833   0.02246   0.35226  -0.06411
  0-1A  -> 15-1A    5.186237   41829.8   239.1    8.15775  -0.07448  -0.23069   0.03592
  0-1A  -> 16-1A    5.216096   42070.7   237.7    5.17041  -0.13368  -0.69754  -0.54572
  0-1A  -> 17-1A    5.254959   42384.1   235.9    5.10402  -0.13221  -0.23458  -0.17820
  0-1A  -> 18-1A    5.409460   43630.2   229.2  -11.74575  -0.09416  -0.44813  -1.04252
  0-1A  -> 19-1A    5.466922   44093.7   226.8   -2.71192   0.12570  -0.03552   0.19151
  0-1A  -> 20-1A    5.539992   44683.1   223.8   -5.19678   0.30172   0.68628   0.55596
  0-1A  -> 21-1A    5.573476   44953.1   222.5    0.67496  -0.04620  -0.17093  -0.03561
  0-1A  -> 22-1A    5.676973   45787.9   218.4   -5.78626  -0.01860  -0.52286  -0.98923
  0-1A  -> 23-1A    5.774582   46575.1   214.7    7.65259   0.04506  -0.06069   0.41878
  0-1A  -> 24-1A    5.817981   46925.2   213.1   -8.58587  -0.04093  -0.10583   0.19357
  0-1A  -> 25-1A    5.823814   46972.2   212.9    8.68327  -0.09735  -0.55381  -0.91032
  0-1A  -> 26-1A    5.881451   47437.1   210.8   14.06429  -0.19762   0.05624  -0.28534
  0-1A  -> 27-1A    5.890743   47512.1   210.5    7.77864   0.16675   0.02171  -0.08465
  0-1A  -> 28-1A    5.920917   47755.4   209.4  -65.77444  -0.35822  -0.34011  -0.88065
  0-1A  -> 29-1A    5.954171   48023.6   208.2  -31.28679   0.32821   0.39299   1.13905
  0-1A  -> 30-1A    5.959019   48062.7   208.1  -17.68370   0.00925   0.04119  -0.50954

------------------------------------------------------------------------------------------
                     CD SPECTRUM VIA TRANSITION VELOCITY DIPOLE MOMENTS    
------------------------------------------------------------------------------------------
     Transition      Energy     Energy  Wavelength    R        MX        MY        MZ   
                      (eV)      (cm-1)    (nm)   (1e40*cgs)   (au)      (au)      (au)  
------------------------------------------------------------------------------------------
  0-1A  ->  1-1A    1.929889   15565.6   642.4  -19.20117   0.54046   1.34045   1.54208
  0-1A  ->  2-1A    2.469311   19916.3   502.1    2.90021   0.11113   0.01736  -0.26423
  0-1A  ->  3-1A    3.254483   26249.2   381.0   41.45949  -0.07876  -0.33231   1.50383
  0-1A  ->  4-1A    3.526910   28446.4   351.5   41.40434   0.12776  -0.72451  -1.00586
  0-1A  ->  5-1A    3.629217   29271.6   341.6   16.42046   0.26432   1.98665   1.82449
  0-1A  ->  6-1A    3.894333   31409.9   318.4    2.34203  -0.29931  -0.57587  -0.50504
  0-1A  ->  7-1A    4.131560   33323.3   300.1   -1.43528  -0.02709  -0.37867   0.26369
  0-1A  ->  8-1A    4.222635   34057.9   293.6    3.38806  -0.12543   0.32119  -0.53427
  0-1A  ->  9-1A    4.370671   35251.8   283.7   17.21738   0.01498   0.12752  -0.32647
  0-1A  -> 10-1A    4.587793   37003.0   270.2   -2.36539   0.34693   1.00053   1.16632
  0-1A  -> 11-1A    4.715722   38034.9   262.9   18.89372  -0.01368  -0.38078   0.09000
  0-1A  -> 12-1A    4.726361   38120.7   262.3  -20.58408  -0.08063  -0.01610   0.25781
  0-1A  -> 13-1A    4.910467   39605.6   252.5   21.82862   0.22143  -0.31583  -0.07115
  0-1A  -> 14-1A    5.157121   41595.0   240.4    1.31831   0.02246   0.35226  -0.06411
  0-1A  -> 15-1A    5.186237   41829.8   239.1    7.99868  -0.07448  -0.23069   0.03592
  0-1A  -> 16-1A    5.216096   42070.7   237.7    5.61470  -0.13368  -0.69754  -0.54572
  0-1A  -> 17-1A    5.254959   42384.1   235.9    5.31219  -0.13221  -0.23458  -0.17820
  0-1A  -> 18-1A    5.409460   43630.2   229.2  -12.34107  -0.09416  -0.44813  -1.04252
  0-1A  -> 19-1A    5.466922   44093.7   226.8   -2.25206   0.12570  -0.03552   0.19151
  0-1A  -> 20-1A    5.539992   44683.1   223.8   -5.02045   0.30172   0.68628   0.55596
  0-1A  -> 21-1A    5.573476   44953.1   222.5    0.32624  -0.04620  -0.17093  -0.03561
  0-1A  -> 22-1A    5.676973   45787.9   218.4   -5.12367  -0.01860  -0.52286  -0.98923
  0-1A  -> 23-1A    5.774582   46575.1   214.7    7.98943   0.04506  -0.06069   0.41878
  0-1A  -> 24-1A    5.817981   46925.2   213.1   -7.88484  -0.04093  -0.10583   0.19357
  0-1A  -> 25-1A    5.823814   46972.2   212.9    7.97232  -0.09735  -0.55381  -0.91032
  0-1A  -> 26-1A    5.881451   47437.1   210.8   14.21069  -0.19762   0.05624  -0.28534
  0-1A  -> 27-1A    5.890743   47512.1   210.5    8.03681   0.16675   0.02171  -0.08465
  0-1A  -> 28-1A    5.920917   47755.4   209.4  -66.75977  -0.35822  -0.34011  -0.88065
  0-1A  -> 29-1A    5.954171   48023.6   208.2  -30.82439   0.32821   0.39299   1.13905
  0-1A  -> 30-1A    5.959019   48062.7   208.1  -17.26286   0.00925   0.04119  -0.50954

Total run time:    74227.673 sec

           *** ORCA-CIS/TD-DFT FINISHED WITHOUT ERROR ***
-----------------------
CIS/TD-DFT TOTAL ENERGY
-----------------------

    E(SCF)  =  -2934.848553702 Eh
    DE(CIS) =      0.070922138 Eh (Root  1)
    ----------------------------- ---------
    E(tot)  =  -2934.777631564 Eh


Maximum memory used throughout the entire CIS-calculation: 1740.9 MB
=> NOW LEAVING ORCA_CIS


-------------------------------------------------------------------------------
                          DFT DISPERSION CORRECTION                            
                                                                               
                              DFTD3 V3.1  Rev 1                                
                              USING zero damping                               
-------------------------------------------------------------------------------
The omegaB97X-D3 functional is recognized. Fit by Chai et al.
Active option DFTDOPT                   ...         3   

molecular C6(AA) [au] = 177089.709742 


            DFT-D V3
 parameters
 s6 scaling factor         :     1.0000 
 rs6 scaling factor        :     1.2810 
 s8 scaling factor         :     1.0000 
 rs8 scaling factor        :     1.0940 
 Damping factor alpha6     :    14.0000 
 Damping factor alpha8     :    16.0000 
 ad hoc parameters k1-k3   :    16.0000     1.3333    -4.0000 

 Edisp/kcal,au: -45.059966500669  -0.071807619736 
 E6   /kcal   : -21.096208362 
 E8   /kcal   : -23.963758138 
 % E8         :  53.181926218 

-------------------------   ----------------
Dispersion correction           -0.071807620
-------------------------   ----------------


-------------------------   --------------------
FINAL SINGLE POINT ENERGY     -2934.849439183616
-------------------------   --------------------



           ************************************************************
           *        Program running with 4 parallel MPI-processes     *
           *              working on a common directory               *
           ************************************************************

------------------------------------------------------------------------------
                              ORCA PROPERTY CALCULATIONS
------------------------------------------------------------------------------

GBWName                                 ... tddft.gbw
Number of atoms                         ...    137
Number of basis functions               ...   2448
Max core memory                         ...   2200 MB

Electric properties:
Dipole moment                           ... YES
Quadrupole moment                       ...  NO
Static polarizability (Dipole/Dipole)   ...  NO
Static polarizability (Dipole/Quad.)    ...  NO
Static polarizability (Quad./Quad.)     ...  NO
Static polarizability (Velocity)        ...  NO
Static hyperpolarizability              ...  NO

Atomic electric properties:
Dipole moment                           ...  NO
Quadrupole moment                       ...  NO
Static polarizability                   ...  NO

Choice of electric origin               ... Center of mass
Position of electric origin             ...    -0.035095    -0.037699    -0.277632

General magnetic properties:
Magnetizability                         ...  NO

EPR properties:
g-Tensor (aka g-matrix)                 ...  NO
Zero-Field splitting spin-orbit         ...  NO
Zero-field splitting spin-spin          ...  NO
Hyperfine couplings                     ...  NO (   0 nuclei)
Quadrupole couplings                    ...  NO (   0 nuclei)
Contact density                         ...  NO (   0 nuclei)

NMR properties:
Chemical shifts                         ...  NO (   0 nuclei)
Spin-rotation constants                 ...  NO (   0 nuclei)
Spin-spin couplings                     ...  NO (   0 nuclei,    0 pairs)

Choice of magnetic origin               ... GIAO
Position of magnetic origin             ...     0.000000     0.000000     0.000000

Properties with geometric perturbations:
SCF Hessian                             ...  NO
IR spectrum                             ...  NO
VCD spectrum                            ...  NO
X-ray spectroscopy properties:
SCF XES/XAS/RIXS spectra                ...  NO

SCF SOC stabilization energy            ...  NO
Diagonal Born-Oppenheimer correction    ...  NO

-------------
DIPOLE MOMENT
-------------

Method             : SCF
Type of density    : Electron Density
Multiplicity       :   1
Irrep              :   0
Energy             : -2934.8485537019341791 Eh
Basis              : AO
                                X                 Y                 Z
Electronic contribution:    281.300045552      20.636745319     -19.354982288
Nuclear contribution   :   -282.757873404     -22.950399894      21.290669736
                        -----------------------------------------
Total Dipole Moment    :     -1.457827853      -2.313654575       1.935687449
                        -----------------------------------------
Magnitude (a.u.)       :      3.350394818
Magnitude (Debye)      :      8.516026849



--------------------
Rotational spectrum 
--------------------
 
Rotational constants in cm-1:             0.001822             0.000215             0.000199 
Rotational constants in MHz :            54.623989             6.434735             5.973951 

Dipole components along the rotational axes: 
x,y,z [a.u.] :     1.550385     2.935723    -0.450538 
x,y,z [Debye]:     3.940765     7.462014    -1.145178 

 

Dipole moment calculation done in   0.2 sec 

Maximum memory used throughout the entire PROP-calculation: 402.3 MB

--------------------------------
SUGGESTED CITATIONS FOR THIS RUN
--------------------------------

Below you find a list of papers that are relevant to this ORCA run
We neither can nor want to force you to cite these papers, but we appreciate if you do
You receive ORCA, which is the product of decades of hard work by many enthusiastic individuals, for free
The only thing we kindly ask in return is that you cite our papers,
We deeply appreciate it, if you show your appreciation for ORCA by not just citing the generic ORCA reference.

Please note that relegating all ORCA citations to the supporting information does *not* help us.
SI sections are not indexed - citations you put there will not count into any citation statistics
But we need these citations in order to attract the funding resources that allow us to do what we are doing

Therefore, if you are a happy ORCA user, please consider citing a few of the papers listed below in the main body of your paper

In addition to the list printed below, the program has created the file tddft.bibtex that contains the list in bibtex format
You can import this file easily into all common literature databanks and citation aid programs

It goes without saying that in many instances, there are alternative algorithms to achieve similar
results as the ones you have gotten from ORCA. It is, of course, also the case that in some instances
ORCA just re-implements algorithms worked out by others. We are fully aware of that and we are also
fully appreciative of our colleagues work. Hence this citation list should not be read as indicating
that the listed papers, which are focused on our own work, are the only ones worth citing. It simply
meant to make it easier for users to cite ORCA specific papers. It is not a substitute for doing your
own literature research and citing the relevant literature in a scientifically appropriate manner.

List of essential papers. We consider these as the minimum necessary citations

  1. Neese, F.
     Software update: the ORCA program system, version 6.0
     WIRES Comput. Molec. Sci. 2025 15(1), e70019
     doi.org/10.1002/wcms.70019

List of papers to cite with high priority. The work reported in these papers was absolutely
necessary for this run to complete.
Our perspective: the developers of density functionals and basis sets usually get cited in chemistry papers
Good! But without the algorithms to do something with them, the functionals or basis sets would not do anything.
Hence, in our opinion, the algorithm design and method developments papers are equally worthy of getting cited

  1. Neese, F.; Olbrich, G.
     Efficient use of the resolution of the identity approximation in time-dependent density functional calculations with hybrid density functionals
     Chem. Phys. Lett. 2002 362 , 170-178
     doi.org/10.1016/s0009-2614(02)01053-9
  2. Neese, F.
     An improvement of the resolution of the identity approximation for the formation of the Coulomb matrix
     J. Comp. Chem. 2003 24(14), 1740-1747
     doi.org/10.1002/jcc.10318
  3. Neese, F.; Wennmohs, F.; Hansen, A.; Becker, U.
     Efficient, approximate and parallel Hartree-Fock and hybrid DFT calculations. A 'chain-of-spheres' algorithm for the Hartree-Fock exchange
     Chem. Phys. 2009 356(1-3), 98-109
     doi.org/10.1016/j.chemphys.2008.10.036
  4. Grimme, S.; Antony, J.; Ehrlich, S.; Krieg, H.
     A consistent and accurate ab initio parametrization of density functional dispersion correction (DFT-D) for the 94 elements H-Pu
     J. Chem. Phys. 2010 132 , 154104
     doi.org/10.1063/1.3382344
  5. Garcia-Rates, M.; Neese, F.
     Effect of the Solute Cavity on the Solvation Energy and its Derivatives within the Framework of the Gaussian Charge Scheme
     J. Comput. Chem. 2020 41 , 922-939
     doi.org/10.1002/jcc.26139
  6. Helmich-Paris, B.; de Souza, B.; Neese, F.; Izsák, R.
     An improved chain of spheres for exchange algorithm
     J. Chem. Phys. 2021 155(10), 104109
     doi.org/10.1063/5.0058766
  7. Neese, F.
     The SHARK Integral Generation and Digestion System
     J. Comp. Chem. 2022 44(3), 381
     doi.org/10.1002/jcc.26942

List of suggested additional citations. These are papers that are important in the 'surrounding' of 
of this run, or papers that preceded the highly important papers. If you like your results we are grateful for a citation.

  1. Izsak, R.; Neese, F.
     An overlap fitted chain of spheres exchange method
     J. Chem. Phys. 2011 135 , 144105
     doi.org/10.1063/1.3646921
  2. Izsak, R.; Hansen, A.; Neese, F.
     The resolution of identity and chain of spheres approximations for the LPNO-CCSD singles Fock term
     Molec. Phys. 2012 110 , 2413-2417
     doi.org/10.1080/00268976.2012.687466
  3. Neese, F.
     The ORCA program system
     WIRES Comput. Molec. Sci. 2012 2(1), 73-78
     doi.org/10.1002/wcms.81
  4. Izsak, R.; Neese, F.; Klopper, W.
     Robust fitting techniques in the chain of spheres approximation to the Fock exchange: The role of the complementary space
     J. Chem. Phys. 2013 139 , 
     doi.org/10.1063/1.4819264
  5. Neese, F.
     Software update: the ORCA program system, version 4.0
     WIRES Comput. Molec. Sci. 2018 8(1), 1-6
     doi.org/10.1002/wcms.1327
  6. Neese, F.; Wennmohs, F.; Becker, U.; Riplinger, C.
     The ORCA quantum chemistry program package
     J. Chem. Phys. 2020 152(22), 224108
     doi.org/10.1063/5.0004608
  7. Neese, F.
     Software update: The ORCA program system—Version 5.0
     WIRES Comput. Molec. Sci. 2022 12(1), e1606
     doi.org/10.1002/wcms.1606

List of optional additional citations

  1. Neese, F.
     Approximate second-order SCF convergence for spin unrestricted wavefunctions
     Chem. Phys. Lett. 2000 325(1-3), 93-98
     doi.org/10.1016/s0009-2614(00)00662-x

Timings for individual modules:

Sum of individual times          ...    89943.036 sec (=1499.051 min)
Startup calculation              ...       83.917 sec (=   1.399 min)   0.1 %
SCF iterations                   ...    15618.163 sec (= 260.303 min)  17.4 %
Property integrals               ...       11.063 sec (=   0.184 min)   0.0 %
Property calculations            ...        1.532 sec (=   0.026 min)   0.0 %
CIS module                       ...    74228.361 sec (=1237.139 min)  82.5 %
                             ****ORCA TERMINATED NORMALLY****
TOTAL RUN TIME: 1 days 0 hours 59 minutes 3 seconds 618 msec
