
                                 *****************
                                 * O   R   C   A *
                                 *****************

                                            #,                                       
                                            ###                                      
                                            ####                                     
                                            #####                                    
                                            ######                                   
                                           ########,                                 
                                     ,,################,,,,,                         
                               ,,#################################,,                 
                          ,,##########################################,,             
                       ,#########################################, ''#####,          
                    ,#############################################,,   '####,        
                  ,##################################################,,,,####,       
                ,###########''''           ''''###############################       
              ,#####''   ,,,,##########,,,,          '''####'''          '####       
            ,##' ,,,,###########################,,,                        '##       
           ' ,,###''''                  '''############,,,                           
         ,,##''                                '''############,,,,        ,,,,,,###''
      ,#''                                            '''#######################'''  
     '                                                          ''''####''''         
             ,#######,   #######,   ,#######,      ##                                
            ,#'     '#,  ##    ##  ,#'     '#,    #''#        ,####,    ,#,          
            ##       ##  ##   ,#'  ##            #'  '#       #'       ,# #          
            ##       ##  #######   ##           ,######,      #####,      #          
            '#,     ,#'  ##    ##  '#,     ,#' ,#      #,     #,   #      #          
             '#######'   ##     ##  '#######'  #'      '#     '####' #    #          



                #########################################################
                #                        -***-                          #
                #          Department of theory and spectroscopy        #
                #                                                       #
                #                      Frank Neese                      #
                #                                                       #
                #     Directorship, Architecture, Infrastructure        #
                #                    SHARK, DRIVERS                     #
                #        Core code/Algorithms in most modules           #
                #                                                       #
                #        Max Planck Institute fuer Kohlenforschung      #
                #                Kaiser Wilhelm Platz 1                 #
                #                 D-45470 Muelheim/Ruhr                 #
                #                      Germany                          #
                #                                                       #
                #                  All rights reserved                  #
                #                        -***-                          #
                #########################################################


                         Program Version 6.1.1  -  RELEASE   -
                                (GIT: $487d211c$)
                          ($2025-11-21 10:33:24 +0100$)


 With contributions from (in alphabetic order):
[Max-Planck-Institut fuer Kohlenforschung]                               
  Daniel Aravena         : Magnetic Suceptibility                        
  Michael Atanasov       : Ab Initio Ligand Field Theory (pilot matlab implementation)
  Alexander A. Auer      : GIAO ZORA, VPT2 properties, NMR spectrum      
  Ute Becker             : All parallelization in ORCA, NUMFREQ, NUMCALC 
  Giovanni Bistoni       : ED, misc. LED, open-shell LED, HFLD           
  Dmytro Bykov           : pre 5.0 version of the SCF Hessian            
  Marcos Casanova-Páez   : Triplet and SCS-CIS(D). UHF-(DLPNO)-IP/EA/STEOM-CCSD. UHF-CVS-IP/STEOM-CCSD   
  Vijay G. Chilkuri      : MRCI spin determinant printing, contributions to CSF-ICE 
  Pauline Colinet        : FMM embedding                                 
  Dipayan Datta          : RHF DLPNO-CCSD density                        
  Achintya Kumar Dutta   : EOM-CC, STEOM-CC                              
  Nicolas Foglia         : Exact transition moments, OPA infrastructure, MCD improvements    
  Dmitry Ganyushin       : Spin-Orbit,Spin-Spin,Magnetic field MRCI      
  Miquel Garcia-Rates    : C-PCM and meta-GGA Hessian, CCSD/C-PCM, Gaussian charge scheme 
  Tiago L. C. Gouveia    : GS-ROHF, GS-ROCIS                             
  Yang Guo               : DLPNO-NEVPT2, F12-NEVPT2, CIM, IAO-localization        
  Andreas Hansen         : Spin unrestricted coupled pair/coupled cluster methods 
  Ingolf Harden          : AUTO-CI MPn and infrastructure                
  Benjamin Helmich-Paris : MC-RPA, TRAH-(SCF,CASSCF), AVAS, COSX integrals, SCF dyn. polar., MC-PDFT, srDFT 
  Lee Huntington         : MR-EOM, pCC                                   
  Robert Izsak           : Overlap fitted RIJCOSX, COSX-SCS-MP3, EOM     
  Riya Kayal             : Wick's Theorem for AUTO-CI, AUTO-CI UHF-CCSDT 
  Emily Kempfer          : AUTO-CI RHF CISDT and CCSDT, approximate NEVPT4
  Christian Kollmar      : KDIIS, OOCD, Brueckner-CCSD(T), CCSD density, CASPT2, CASPT2-K, improved NEVPT2 
  Axel Koslowski         : Symmetry handling                             
  Simone Kossmann        : meta-GGA functionals, TD-DFT gradient, OOMP2, (MP2 Hessian; deprecated post 5.0) 
  Lucas Lang             : DCDCAS, Hyperfine gauge corrections, ICE-SOC+SSC
  Marvin Lechner         : AUTO-CI (C++ implementation), FIC-MRCC        
  Spencer Leger          : CASSCF response                               
  Dagmar Lenk            : GEPOL surface, SMD, ORCA-2-JSON               
  Dimitrios Liakos       : Extrapolation schemes; Compound Job, Property file
  Dimitrios Manganas     : Further ROCIS development; embedding schemes. LFT, Crystal Embedding 
  Dimitrios Pantazis     : SARC Basis sets                               
  Anastasios Papadopoulos: AUTO-CI, single reference methods and gradients 
  Taras Petrenko         : pre 6.0 DFT Hessian and TD-DFT gradient,  ECA, NRVS 
  Petra Pikulova         : Analytic Raman intensities                    
  Peter Pinski           : DLPNO-MP2, DLPNO-MP2 Gradient                 
  Shashank Vittal Rao    : ES-AILFT, MagRelax                            
  Christoph Reimann      : Effective Core Potentials                     
  Marius Retegan         : Local ZFS, SOC                                
  Christoph Riplinger    : Optimizer, TS searches, QM/MM, DLPNO-CCSD(T), (RO)-DLPNO pert. Triples 
  Michael Roemelt        : Original ROCIS implementation, recursive CI coupling coefficients
  Masaaki Saitow         : Open-shell DLPNO-CCSD energy and density      
  Barbara Sandhoefer     : DKH picture change effects                    
  Yorick L. A. Schmerwitz: GMF and freeze-and-release deltaSCF, NEB S-IDPP initial path                    
  Kantharuban Sivalingam : CASSCF convergence/infrastructure, NEVPT2, NEVPT3, NEVPT4(SD), FIC-MRCI and CEPA variants
  Bernardo de Souza      : ESD, SOC TD-DFT                               
  Georgi L. Stoychev     : AutoAux, RI-MP2 NMR, DLPNO-MP2 response, X2C  
  Van Anh Tran           : RI-MP2 g-tensors                              
  Willem Van den Heuvel  : Paramagnetic NMR                              
  Zikuan Wang            : NOTCH, Electric field optimization            
  Frank Wennmohs         : Technical directorship and infrastructure     
  Hang Xu                : AUTO-CI-Response properties                   
                                                                         
[FACCTs GmbH]                                                            
  Markus Bursch, Nicolas Foglia, Miquel Garcia-Rates, Ingolf Harden, Hagen Neugebauer, Anastasios Papadopoulos, 
  Christoph Riplinger, Bernardo de Souza, Georgi L. Stoychev                                                    
                                                                 
  APM, various basis sets, CI-OPT, improved COSX, DLPNO-Multilevel,           
  DOCKER, DRACO, updates on ESD, Fragmentator, GOAT, IRC, LR-CPCM, L-BFGS, MBIS, meta-GGA TD-DFT gradient, ML-optimized integration grids, 
  MM, NACMEs, nearIR, NEB, NEB-TS, NL-DFT gradient (VV10), 2- and 3-layer-ONIOM, interface openCOSMO-RS, QMMM,   
  Crystal-QMMM, RESP, rigid body optimization, SF, symmetry and pop. for TD-DFT, various functionals, SOLVATOR                                   
                                                                         
[Other institutions]                                                     
  V. Asgeirsson          : NEB                                           
  Christoph Bannwarth    : sTDA-DFT, sTD-DFT, PBEh-3c, B97-3c, D3        
  Giovanni Bistoni       : ETS/NOCV, ADLD/ADEX, COVALED                  
  Martin Brehm           : Molecular dynamics                            
  Ronald Cardenas        : ETS/NOCV                                      
  Martina Colucci        : COVALED                                       
  Sebastian Ehlert       : rSCAN, r2SCAN, r2SCAN-3c, D4, dhf basis sets  
  Marvin Friede          : D4 for Fr, Ra, Ac-Lr                          
  Lars Goerigk           : TD-DFT with DH, B97 family of functionals     
  Stefan Grimme          : VdW corrections, initial TS optimization, DFT functionals, gCP, sTDA/sTD-DF 
  Waldemar Hujo          : DFT-NL                                        
  H. Jonsson             : NEB                                           
  Holger Kruse           : gCP                                           
  Marcel Mueller         : wB97X-3c, vDZP basis set                      
  Hagen Neugebauer       : wr2SCAN, Native XTB                           
  Gianluca Regni         : ADLD/ADEX                                     
  Tobias Risthaus        : pre 6.0 range-separated hybrid DFT and stability analysis
  Lukas Wittmann         : regularized MP2, r2SCAN double-hybrids, wr2SCAN        
                                                                         
We gratefully acknowledge several colleagues who have allowed us to      
interface, adapt or use parts of their codes:                            
  Ed Valeev, F. Pavosevic, A. Kumar             : LibInt (2-el integral package), F12 methods 
  Garnet Chan, S. Sharma, J. Yang, R. Olivares  : DMRG                   
  Ulf Ekstrom                                   : XCFun DFT Library      
  Mihaly Kallay                                 : mrcc  (arbitrary order and MRCC methods)
  Frank Weinhold                                : gennbo (NPA and NBO analysis)           
  Simon Mueller                                 : openCOSMO-RS                            
  Christopher J. Cramer and Donald G. Truhlar   : smd solvation model                     
  S Lehtola, MJT Oliveira, MAL Marques          : LibXC Library                           
  Liviu Ungur et al                             : ANISO software                          


 Your calculation uses the libint2 library for the computation of 2-el integrals
 For citations please refer to: http://libint.valeyev.net

 Your ORCA version has been built with support for libXC version: 7.0.0
 For citations please refer to: https://libxc.gitlab.io

 This ORCA versions uses:
   CBLAS   interface :  Fast vector & matrix operations
   LAPACKE interface :  Fast linear algebra routines
   SCALAPACK package :  Parallel linear algebra routines
   Shared memory     :  Shared parallel matrices
   BLAS/LAPACK       :  OpenBLAS 0.3.29  USE64BITINT DYNAMIC_ARCH NO_AFFINITY Haswell SINGLE_THREADED
        Core in use  :  Haswell
   Copyright (c) 2011-2014, The OpenBLAS Project


  ***********************************
  * Starting time: Tue Aug  4 20:01:00 2026
  * Host name:     steezy
  * Process ID:    1450349
  * Working dir.:  /home/jannes/chlorophyll-ladder/011-chlorophyll-a-truncation/chlorophyll_a/02_tddft_ch2cl2/tpss
  ***********************************

NOTE: MaxCore=2200 MB was set to SCF,MP2,MDCI,CIPSI,MRCI,RASCI and CIS
      => If you want to overwrite this, your respective input block should be placed after the MaxCore statement


***************************************
The coordinates will be read from file: /home/jannes/chlorophyll-ladder/011-chlorophyll-a-truncation/chlorophyll_a/01_opt/chlorophyll_a_opt_b3lypd4_tzvp.xyz
***************************************


================================================================================

----- Orbital basis set information -----
Your calculation utilizes the basis: def2-TZVP
   F. Weigend and R. Ahlrichs, Phys. Chem. Chem. Phys. 7, 3297 (2005).

----- AuxJ basis set information -----
Your calculation utilizes the auxiliary basis: def2/J
   H-Rn: F. Weigend, Phys. Chem. Chem. Phys. 8, 1057 (2006).
   Fr-Lr: K. Eichkorn, F. Weigend, O. Treutler, R. Ahlrichs; Theor. Chem. Acc. 97, 119 (1997).

================================================================================
                                        WARNINGS
                       Please study these warnings very carefully!
================================================================================



WARNING: Found flag for RIJCOSX approximation but no HF exchange needed!
  ===> : RIJCOSX  will be disabled and Split-RI-J is turned on

WARNING: CIS/ROCIS methods need fully converged wavefunctions
  ===> : Setting SCFConvForced true
         You can overwrite this default with %scf ConvForced false 


================================================================================
                                       INPUT FILE
================================================================================
NAME = tddft.inp
|  1> %pal nprocs 4 end
|  2> %maxcore 2200
|  3> ! TPSS def2-TZVP def2/J RIJCOSX DefGrid3 TightSCF CPCM(CH2Cl2)
|  4> %tddft
|  5>   nroots 30
|  6>   tda false
|  7>   triplets false
|  8> end
|  9> * xyzfile 0 1 /home/jannes/chlorophyll-ladder/011-chlorophyll-a-truncation/chlorophyll_a/01_opt/chlorophyll_a_opt_b3lypd4_tzvp.xyz
| 10> 
| 11>                          ****END OF INPUT****
================================================================================

                       ****************************
                       * Single Point Calculation *
                       ****************************

---------------------------------
CARTESIAN COORDINATES (ANGSTROEM)
---------------------------------
  Mg     6.479325   -0.856669   -0.022650
  C      4.824863    1.926725   -1.189190
  C      3.967350   -1.366492    2.202749
  C      8.090452   -3.624777    1.054701
  C      9.073893   -0.194301   -2.228311
  N      4.645023    0.146951    0.413537
  C      4.144979    1.264153   -0.200884
  C      2.779482    1.623969    0.337808
  C      2.687618    0.748333    1.605681
  C      3.820053   -0.243921    1.407761
  C      2.873454    1.552508    2.896797
  C      1.677792    1.333722   -0.691271
  C      0.306476    1.810696   -0.228119
  C     -0.769972    1.581641   -1.264377
  O     -0.573019    1.401751   -2.440156
  O     -1.993543    1.617502   -0.708764
  N      6.084936   -2.259084    1.368503
  C      5.000951   -2.314628    2.185715
  C      5.080945   -3.478347    3.040170
  C      6.254803   -4.120714    2.718156
  C      6.877407   -3.343460    1.658588
  C      4.047146   -3.889520    4.032602
  C      6.814799   -5.345299    3.260172
  C      6.601048   -5.861764    4.473553
  N      8.263879   -1.751213   -0.508417
  C      8.744574   -2.893584    0.050367
  C     10.021398   -3.234476   -0.531017
  C     10.302273   -2.260841   -1.454599
  C      9.190811   -1.336347   -1.433566
  C     10.839407   -4.431219   -0.173262
  C     11.485972   -2.175745   -2.364258
  C     11.239280   -2.841239   -3.725492
  N      6.899588    0.527206   -1.412075
  C      8.008028    0.699564   -2.234592
  C      7.850223    1.892237   -3.035077
  C      6.619003    2.411007   -2.660494
  C      6.084962    1.545039   -1.675539
  C      8.815929    2.431750   -4.032965
  C      5.678985    3.497729   -2.885831
  O      5.745774    4.461750   -3.609447
  C      4.431100    3.184148   -1.942329
  C      4.160810    4.382677   -1.063901
  O      4.666584    4.584571    0.011802
  O      3.293205    5.221456   -1.651794
  C      3.058682    6.460634   -0.966528
  C     -3.113386    1.451284   -1.623782
  C     -4.362005    1.431486   -0.816231
  C     -5.252522    0.439033   -0.742085
  C     -5.122232   -0.876908   -1.459134
  C     -6.497245    0.598310    0.093188
  C     -7.796788    0.622560   -0.723564
  C     -9.034096    0.770893    0.159777
  C    -10.375291    0.724638   -0.585861
  C    -10.541501    1.919308   -1.528846
  C    -11.531336    0.621411    0.418833
  C    -12.909310    0.375287   -0.193858
  C    -13.991724    0.167605    0.864332
  C    -15.385285   -0.175833    0.319462
  C    -15.969237    0.968854   -0.512490
  C    -16.316509   -0.573723    1.473367
  C    -17.675796   -1.131403    1.053752
  C    -18.502427   -1.617095    2.243453
  C    -19.923295   -2.085978    1.904308
  C    -19.929498   -3.294126    0.964709
  C    -20.704004   -2.397334    3.182676
  H      3.190515   -1.521317    2.939485
  H      8.607171   -4.507497    1.404701
  H      9.891945    0.014024   -2.905384
  H      2.748165    2.684594    0.599789
  H      1.733111    0.219047    1.655257
  H      2.062261    2.273792    3.017986
  H      2.883328    0.900103    3.771261
  H      3.815653    2.103920    2.874006
  H      1.913775    1.814778   -1.639835
  H      1.648464    0.259798   -0.896643
  H     -0.003903    1.336742    0.704449
  H      0.330300    2.887549   -0.025835
  H      3.058327   -3.526022    3.751709
  H      3.996583   -4.976686    4.111851
  H      4.264312   -3.502080    5.033330
  H      7.484895   -5.885268    2.598214
  H      7.069801   -6.791697    4.767681
  H      5.984543   -5.373487    5.215213
  H     10.347404   -5.360236   -0.476157
  H     11.813753   -4.405867   -0.660908
  H     11.011159   -4.494374    0.904323
  H     11.762268   -1.129283   -2.517881
  H     12.348967   -2.644684   -1.885420
  H     12.117450   -2.754751   -4.369153
  H     11.010005   -3.901451   -3.602441
  H     10.393547   -2.378779   -4.237777
  H      9.046517    1.692599   -4.804780
  H      8.408763    3.317443   -4.517755
  H      9.762030    2.708615   -3.559300
  H      3.575461    3.043390   -2.605848
  H      2.644615    6.277495    0.024917
  H      3.988817    7.019046   -0.866671
  H      2.350264    7.005887   -1.584013
  H     -3.098953    2.293165   -2.320868
  H     -2.956563    0.545577   -2.204288
  H     -4.551145    2.336338   -0.245550
  H     -5.365305   -1.699154   -0.780373
  H     -5.824891   -0.942756   -2.294440
  H     -4.124269   -1.051942   -1.855134
  H     -6.550710   -0.229670    0.811016
  H     -6.427548    1.518531    0.678869
  H     -7.737859    1.442187   -1.444423
  H     -7.887166   -0.298839   -1.307267
  H     -9.023506   -0.030802    0.906579
  H     -8.970541    1.710227    0.722975
  H    -10.383921   -0.190715   -1.193364
  H     -9.727231    1.978854   -2.251927
  H    -11.471821    1.859981   -2.094507
  H    -10.554337    2.855782   -0.962340
  H    -11.309579   -0.193066    1.117345
  H    -11.561704    1.537014    1.022768
  H    -13.180529    1.212765   -0.839680
  H    -12.863352   -0.509414   -0.840706
  H    -13.673828   -0.638839    1.534600
  H    -14.066240    1.066786    1.488662
  H    -15.277549   -1.051461   -0.335040
  H    -16.089775    1.865908    0.103209
  H    -15.325326    1.227446   -1.353899
  H    -16.946989    0.712178   -0.921565
  H    -15.806139   -1.325840    2.085383
  H    -16.465885    0.295441    2.126078
  H    -18.246763   -0.368448    0.515482
  H    -17.517605   -1.952001    0.346725
  H    -17.970725   -2.434459    2.747015
  H    -18.570278   -0.805635    2.976887
  H    -20.431609   -1.258631    1.392579
  H    -19.395621   -4.136477    1.415694
  H    -20.950711   -3.622167    0.757624
  H    -19.454561   -3.072425    0.007986
  H    -20.739492   -1.531625    3.848253
  H    -21.731896   -2.691756    2.958809
  H    -20.235584   -3.219747    3.731699

----------------------------
CARTESIAN COORDINATES (A.U.)
----------------------------
  NO LB      ZA    FRAG     MASS         X           Y           Z
   0 Mg   12.0000    0    24.305   12.244150   -1.618869   -0.042803
   1 C     6.0000    0    12.011    9.117669    3.640983   -2.247243
   2 C     6.0000    0    12.011    7.497204   -2.582295    4.162593
   3 C     6.0000    0    12.011   15.288738   -6.849835    1.993097
   4 C     6.0000    0    12.011   17.147172   -0.367176   -4.210897
   5 N     7.0000    0    14.007    8.777822    0.277697    0.781471
   6 C     6.0000    0    12.011    7.832875    2.388903   -0.379616
   7 C     6.0000    0    12.011    5.252461    3.068858    0.638365
   8 C     6.0000    0    12.011    5.078862    1.414145    3.034297
   9 C     6.0000    0    12.011    7.218854   -0.460944    2.660282
  10 C     6.0000    0    12.011    5.430041    2.933815    5.474153
  11 C     6.0000    0    12.011    3.170567    2.520369   -1.306312
  12 C     6.0000    0    12.011    0.579156    3.421719   -0.431082
  13 C     6.0000    0    12.011   -1.455036    2.988869   -2.389325
  14 O     8.0000    0    15.999   -1.082848    2.648926   -4.611227
  15 O     8.0000    0    15.999   -3.767251    3.056636   -1.339370
  16 N     7.0000    0    14.007   11.498863   -4.269049    2.586097
  17 C     6.0000    0    12.011    9.450427   -4.374014    4.130402
  18 C     6.0000    0    12.011    9.601594   -6.573122    5.745089
  19 C     6.0000    0    12.011   11.819864   -7.787021    5.136570
  20 C     6.0000    0    12.011   12.996415   -6.318224    3.134277
  21 C     6.0000    0    12.011    7.647997   -7.350127    7.620513
  22 C     6.0000    0    12.011   12.878104  -10.101152    6.160832
  23 C     6.0000    0    12.011   12.474174  -11.077129    8.453789
  24 N     7.0000    0    14.007   15.616467   -3.309313   -0.960768
  25 C     6.0000    0    12.011   16.524849   -5.468082    0.095180
  26 C     6.0000    0    12.011   18.937698   -6.112274   -1.003476
  27 C     6.0000    0    12.011   19.468475   -4.272369   -2.748794
  28 C     6.0000    0    12.011   17.368116   -2.525330   -2.709047
  29 C     6.0000    0    12.011   20.483510   -8.373791   -0.327418
  30 C     6.0000    0    12.011   21.705342   -4.111562   -4.467801
  31 C     6.0000    0    12.011   21.239160   -5.369163   -7.040160
  32 N     7.0000    0    14.007   13.038331    0.996275   -2.668435
  33 C     6.0000    0    12.011   15.132980    1.321984   -4.222767
  34 C     6.0000    0    12.011   14.834772    3.575810   -5.735464
  35 C     6.0000    0    12.011   12.508103    4.556144   -5.027605
  36 C     6.0000    0    12.011   11.498912    2.919701   -3.166309
  37 C     6.0000    0    12.011   16.659691    4.595341   -7.621199
  38 C     6.0000    0    12.011   10.731727    6.609750   -5.453431
  39 O     8.0000    0    15.999   10.857938    8.431486   -6.820866
  40 C     6.0000    0    12.011    8.373566    6.017167   -3.670469
  41 C     6.0000    0    12.011    7.862792    8.282060   -2.010482
  42 O     8.0000    0    15.999    8.818566    8.663584    0.022303
  43 O     8.0000    0    15.999    6.223255    9.867122   -3.121439
  44 C     6.0000    0    12.011    5.780071   12.208830   -1.826473
  45 C     6.0000    0    12.011   -5.883447    2.742529   -3.068504
  46 C     6.0000    0    12.011   -8.242995    2.705116   -1.542453
  47 C     6.0000    0    12.011   -9.925828    0.829652   -1.402337
  48 C     6.0000    0    12.011   -9.679615   -1.657115   -2.757363
  49 C     6.0000    0    12.011  -12.278014    1.130642    0.176100
  50 C     6.0000    0    12.011  -14.733793    1.176469   -1.367338
  51 C     6.0000    0    12.011  -17.071967    1.456776    0.301934
  52 C     6.0000    0    12.011  -19.606458    1.369367   -1.107117
  53 C     6.0000    0    12.011  -19.920549    3.626967   -2.889100
  54 C     6.0000    0    12.011  -21.791068    1.174296    0.791479
  55 C     6.0000    0    12.011  -24.395060    0.709190   -0.366339
  56 C     6.0000    0    12.011  -26.440526    0.316728    1.633351
  57 C     6.0000    0    12.011  -29.073976   -0.332276    0.603695
  58 C     6.0000    0    12.011  -30.177484    1.830869   -0.968466
  59 C     6.0000    0    12.011  -30.833733   -1.084180    2.784260
  60 C     6.0000    0    12.011  -33.402414   -2.138041    1.991302
  61 C     6.0000    0    12.011  -34.964519   -3.055867    4.239511
  62 C     6.0000    0    12.011  -37.649571   -3.941927    3.598621
  63 C     6.0000    0    12.011  -37.661293   -6.224995    1.823035
  64 C     6.0000    0    12.011  -39.124897   -4.530305    6.014386
  65 H     1.0000    0     1.008    6.029200   -2.874872    5.554822
  66 H     1.0000    0     1.008   16.265196   -8.517935    2.654501
  67 H     1.0000    0     1.008   18.693067    0.026501   -5.490380
  68 H     1.0000    0     1.008    5.193278    5.073147    1.133438
  69 H     1.0000    0     1.008    3.275105    0.413939    3.127982
  70 H     1.0000    0     1.008    3.897109    4.296844    5.703167
  71 H     1.0000    0     1.008    5.448700    1.700949    7.126651
  72 H     1.0000    0     1.008    7.210540    3.975833    5.431084
  73 H     1.0000    0     1.008    3.616510    3.429433   -3.098840
  74 H     1.0000    0     1.008    3.115145    0.490947   -1.694410
  75 H     1.0000    0     1.008   -0.007376    2.526076    1.331217
  76 H     1.0000    0     1.008    0.624176    5.456676   -0.048821
  77 H     1.0000    0     1.008    5.779400   -6.663215    7.089702
  78 H     1.0000    0     1.008    7.552448   -9.404573    7.770273
  79 H     1.0000    0     1.008    8.058383   -6.617973    9.511615
  80 H     1.0000    0     1.008   14.144402  -11.121544    4.909912
  81 H     1.0000    0     1.008   13.359987  -12.834447    9.009612
  82 H     1.0000    0     1.008   11.309148  -10.154420    9.855325
  83 H     1.0000    0     1.008   19.553759  -10.129378   -0.899807
  84 H     1.0000    0     1.008   22.324758   -8.325883   -1.248936
  85 H     1.0000    0     1.008   20.808074   -8.493136    1.708924
  86 H     1.0000    0     1.008   22.227464   -2.134035   -4.758106
  87 H     1.0000    0     1.008   23.336165   -4.997728   -3.562927
  88 H     1.0000    0     1.008   22.898661   -5.205725   -8.256502
  89 H     1.0000    0     1.008   20.805894   -7.372674   -6.807627
  90 H     1.0000    0     1.008   19.640957   -4.495241   -8.008238
  91 H     1.0000    0     1.008   17.095439    3.198548   -9.079718
  92 H     1.0000    0     1.008   15.890260    6.269060   -8.537319
  93 H     1.0000    0     1.008   18.447564    5.118540   -6.726102
  94 H     1.0000    0     1.008    6.756642    5.751174   -4.924338
  95 H     1.0000    0     1.008    4.997597   11.862746    0.047086
  96 H     1.0000    0     1.008    7.537771   13.264075   -1.637771
  97 H     1.0000    0     1.008    4.441355   13.239207   -2.993351
  98 H     1.0000    0     1.008   -5.856172    4.333454   -4.385805
  99 H     1.0000    0     1.008   -5.587094    1.030991   -4.165501
 100 H     1.0000    0     1.008   -8.600417    4.415039   -0.464021
 101 H     1.0000    0     1.008  -10.138957   -3.210935   -1.474691
 102 H     1.0000    0     1.008  -11.007449   -1.781551   -4.335864
 103 H     1.0000    0     1.008   -7.793738   -1.987882   -3.505696
 104 H     1.0000    0     1.008  -12.379049   -0.434014    1.532598
 105 H     1.0000    0     1.008  -12.146305    2.869607    1.282877
 106 H     1.0000    0     1.008  -14.622434    2.725339   -2.729564
 107 H     1.0000    0     1.008  -14.904583   -0.564724   -2.470377
 108 H     1.0000    0     1.008  -17.051954   -0.058208    1.713187
 109 H     1.0000    0     1.008  -16.951865    3.231861    1.366225
 110 H     1.0000    0     1.008  -19.622766   -0.360399   -2.255131
 111 H     1.0000    0     1.008  -18.381802    3.739491   -4.255525
 112 H     1.0000    0     1.008  -21.678599    3.514854   -3.958045
 113 H     1.0000    0     1.008  -19.944806    5.396646   -1.818560
 114 H     1.0000    0     1.008  -21.372008   -0.364841    2.111477
 115 H     1.0000    0     1.008  -21.848454    2.904536    1.932752
 116 H     1.0000    0     1.008  -24.907590    2.291794   -1.586766
 117 H     1.0000    0     1.008  -24.308212   -0.962653   -1.588704
 118 H     1.0000    0     1.008  -25.839790   -1.207231    2.899973
 119 H     1.0000    0     1.008  -26.581341    2.015933    2.813163
 120 H     1.0000    0     1.008  -28.870383   -1.986973   -0.633133
 121 H     1.0000    0     1.008  -30.405269    3.526055    0.195036
 122 H     1.0000    0     1.008  -28.960670    2.319536   -2.558499
 123 H     1.0000    0     1.008  -32.025168    1.345821   -1.741506
 124 H     1.0000    0     1.008  -29.869274   -2.505475    3.940802
 125 H     1.0000    0     1.008  -31.116014    0.558302    4.017705
 126 H     1.0000    0     1.008  -34.481386   -0.696266    0.974119
 127 H     1.0000    0     1.008  -33.103476   -3.688748    0.655216
 128 H     1.0000    0     1.008  -33.959749   -4.600460    5.191106
 129 H     1.0000    0     1.008  -35.092740   -1.522429    5.625502
 130 H     1.0000    0     1.008  -38.610145   -2.378468    2.631593
 131 H     1.0000    0     1.008  -36.652413   -7.816809    2.675273
 132 H     1.0000    0     1.008  -39.591106   -6.844903    1.431702
 133 H     1.0000    0     1.008  -36.763792   -5.806042    0.015092
 134 H     1.0000    0     1.008  -39.191961   -2.894351    7.272145
 135 H     1.0000    0     1.008  -41.067332   -5.086682    5.591338
 136 H     1.0000    0     1.008  -38.239712   -6.084441    7.051889

--------------------------------
INTERNAL COORDINATES (ANGSTROEM)
--------------------------------
 Mg     0   0   0     0.000000000000     0.00000000     0.00000000
 C      1   0   0     3.441706040795     0.00000000     0.00000000
 C      1   2   0     3.394457668888    89.30889667     0.00000000
 C      1   2   3     3.379177049487   178.68175990   112.27289249
 C      1   2   3     3.469214613735    89.40493490   182.29922912
 N      1   2   3     2.135924835471    43.64663978     0.72297241
 C      6   1   2     1.369561443797   127.24560283     1.16512150
 C      7   6   1     1.511369369791   111.35686998   176.67956037
 C      8   7   6     1.543592769906   102.20898485    13.11530211
 C      6   1   2     1.349754485386   122.63215241   183.37318882
 C      9   8   7     1.532388190848   112.77664995   105.03734026
 C      8   7   6     1.535242429099   111.37164823   251.45860928
 C     12   8   7     1.523982230910   112.50920958   185.52321196
 C     13  12   8     1.511633612473   112.64445898   177.46814922
 O     14  13  12     1.205657098788   125.08662567   340.38500786
 O     14  13  12     1.344291055565   111.14830867   161.04362100
 N      1   2   3     2.014353277146   134.66866264     1.99036412
 C     17   1   2     1.358654949213   126.87482816   357.69144692
 C     18  17   1     1.445936755180   110.13316003   179.72837459
 C     19  18  17     1.376325521682   106.53231770     0.37739225
 C     17   1   2     1.374056403486   125.61365444   177.59506666
 C     19  18  17     1.490880187271   125.23758309   182.18112390
 C     20  19  18     1.451546231965   129.45157536   180.80476837
 C     23  20  19     1.335933264052   127.12610259   333.72833071
 N      1   2   3     2.054461113194   133.59421682   180.89498556
 C     25   1   2     1.359529079887   125.15624580   181.97463487
 C     26  25   1     1.443777996460   110.21707011   179.85213705
 C     27  26  25     1.371080601320   106.54412342     0.26046554
 C     25   1   2     1.373760941850   127.86735246     1.97620977
 C     27  26  25     1.493090831842   125.25889970   180.66305093
 C     28  27  26     1.495280324903   127.76173296   182.26827086
 C     31  28  27     1.535153770543   112.80223231    91.51067135
 N      1   2   3     2.005550035663    46.20171862   182.09124075
 C     33   1   2     1.391000182885   131.46322253   178.53647119
 C     34  33   1     1.445042403301   110.04801695   182.27813617
 C     35  34  33     1.387565357793   104.82885546   359.88862450
 C     33   1   2     1.330042104720   122.47532434     0.94304293
 C     35  34  33     1.489778941651   126.80960458   179.58057088
 C     36  35  34     1.454432847022   144.19495672   179.56518189
 O     39  36  35     1.207235199980   130.82562105   358.58789359
 C      2   1   3     1.517688754903   164.35575665   177.50215655
 C     41   2   1     1.510352210713   114.53659303   237.78801913
 O     42  41   2     1.205696981445   125.21920743    28.62695551
 O     42  41   2     1.342351819838   110.90379824   207.38963558
 C     44  42  41     1.435323425278   115.84767491   185.77235653
 C     16  14  13     1.455656177894   115.93602451   178.09424862
 C     46  16  14     1.487138224139   107.82408391   176.39128295
 C     47  46  16     1.335469914406   126.86357787   240.13166419
 C     48  47  46     1.504271866507   124.46393816     1.53589320
 C     48  47  46     1.507443692477   120.18853641   182.08211459
 C     50  48  47     1.535083602003   113.94616119   113.82673898
 C     51  50  48     1.527489747424   112.30801206   179.41735962
 C     52  51  50     1.535225844420   115.07823818   183.22502876
 C     53  52  51     1.531039827228   111.74457360   294.54639931
 C     53  52  51     1.535091596965   110.00198802   169.55329475
 C     55  53  52     1.527998016085   115.31140995   188.00077823
 C     56  55  53     1.527912952873   112.52332946   175.22595773
 C     57  56  55     1.535202868777   115.31959895   183.81369614
 C     58  57  56     1.530833790524   111.83105398   295.92296269
 C     58  57  56     1.535249455416   109.98772544   171.11282683
 C     60  58  57     1.527987534656   115.32662168   188.36114646
 C     61  60  58     1.527940721061   112.54865178   175.09142631
 C     62  61  60     1.534189181039   115.21877166   175.32659430
 C     63  62  61     1.530525094603   112.37773016    62.43618717
 C     63  62  61     1.529925696594   110.49264646   186.37032651
 H      3   1   2     1.081768203352   178.03369337   246.95217603
 H      4   1  33     1.081061552948   179.67226140   109.10243791
 H      5   1   2     1.082144705435   179.25352134   117.53697296
 H      8   7   6     1.092949382779   110.02050629   130.63440572
 H      9   8   7     1.092559231141   111.35078720   227.65559267
 H     11   9   8     1.092231799297   110.48570164    64.28463475
 H     11   9   8     1.091062415020   111.25922898   184.51660560
 H     11   9   8     1.091931483368   110.61375920   304.69831410
 H     12   8   7     1.089439052268   110.16398147   307.03693870
 H     12   8   7     1.093778005785   109.31283122    63.14696688
 H     13  12   8     1.091169615291   112.31783307   300.36521265
 H     13  12   8     1.095946293867   110.12438865    58.22254394
 H     22  19  18     1.090318771361   111.43379415    26.30205799
 H     22  19  18     1.091222824261   110.80820574   146.57513737
 H     22  19  18     1.094864437862   111.91932658   266.14699076
 H     23  20  19     1.085717523549   115.46876553   154.25467552
 H     24  23  20     1.082135009911   120.64931197   179.51173494
 H     24  23  20     1.080996271574   122.66867946   357.82047717
 H     30  27  26     1.094022112369   111.58670526    66.88218537
 H     30  27  26     1.089859196202   111.34243960   186.78889270
 H     30  27  26     1.093013379468   111.63089619   307.03601772
 H     31  28  27     1.093170603854   109.87990608   213.77447853
 H     31  28  27     1.092680173599   109.52404781   329.62305820
 H     32  31  28     1.092227748472   111.03983592   179.49665320
 H     32  31  28     1.091676704330   110.78182354   299.74471277
 H     32  31  28     1.091589792214   110.91481554    59.11175549
 H     38  35  34     1.093258028841   111.39260199    56.76947194
 H     38  35  34     1.088695886091   110.51508040   177.25242932
 H     38  35  34     1.093673054236   111.24366744   297.32442143
 H     41   2   1     1.091873915343   113.45746400   112.60821853
 H     45  44  42     1.089933170437   110.56657729   299.19395487
 H     45  44  42     1.089470081645   110.29001910    59.93697327
 H     45  44  42     1.086482723818   105.57310553   179.41657570
 H     46  16  14     1.093115037183   107.62327232   296.87668026
 H     46  16  14     1.087145972860   108.65137100    52.88918616
 H     47  46  16     1.086374065722   114.85632311    60.90451933
 H     49  48  47     1.093567218463   110.03786682   134.98372840
 H     49  48  47     1.093528000528   111.17010710   252.87050003
 H     49  48  47     1.087834694435   113.18723214    14.06021615
 H     50  48  47     1.097126796743   108.84654230   235.16917089
 H     50  48  47     1.093016894838   109.46381553   351.48176087
 H     51  50  48     1.093114422312   108.48613637   302.00526767
 H     51  50  48     1.094465335836   109.89914245    58.07575953
 H     52  51  50     1.095692216140   108.37733942   304.87809236
 H     52  51  50     1.097078674144   109.45671986    60.08109449
 H     53  52  51     1.098637861798   107.48942116    52.84898143
 H     54  53  52     1.090608876419   111.70967107    57.08510038
 H     54  53  52     1.090407370954   111.69577010   177.17336907
 H     54  53  52     1.094566644565   110.49338561   297.11876573
 H     55  53  52     1.095658562815   108.34990725   309.86932652
 H     55  53  52     1.097265044317   108.96307873    64.72478856
 H     56  55  53     1.091794636498   109.73417016   297.73589370
 H     56  55  53     1.096913744516   109.18287149    53.84271799
 H     57  56  55     1.095750304412   108.55144520   305.63648243
 H     57  56  55     1.097208356789   109.31761477    60.77270626
 H     58  57  56     1.098500218252   107.50312798    54.35411304
 H     59  58  57     1.094678352166   110.43194757   298.33047336
 H     59  58  57     1.090623405738   111.79940661    58.27252283
 H     59  58  57     1.090515402222   111.70819168   178.41048480
 H     60  58  57     1.095774012612   108.37083783   310.16084563
 H     60  58  57     1.097173987975   108.92946885    65.00155316
 H     61  60  58     1.094457998821   110.16503112   296.70845958
 H     61  60  58     1.094665633427   108.80902643    52.84696571
 H     62  61  60     1.097435554605   109.38484606   298.25766262
 H     62  61  60     1.095900648595   108.61617800    53.43777342
 H     63  62  61     1.097612540539   107.55338088   303.85862343
 H     64  63  62     1.094516853070   110.64487396    59.29474490
 H     64  63  62     1.092415493238   110.92854484   178.68358653
 H     64  63  62     1.090886604273   112.09956099   298.94774306
 H     65  63  62     1.092568370600   111.36705533    57.06330813
 H     65  63  62     1.092411933628   111.33184149   177.57061750
 H     65  63  62     1.094169259873   110.71834319   297.27783005

---------------------------
INTERNAL COORDINATES (A.U.)
---------------------------
 Mg     0   0   0     0.000000000000     0.00000000     0.00000000
 C      1   0   0     6.503881850565     0.00000000     0.00000000
 C      1   2   0     6.414595367388    89.30889667     0.00000000
 C      1   2   3     6.385719181563   178.68175990   112.27289249
 C      1   2   3     6.555865519757    89.40493490   182.29922912
 N      1   2   3     4.036312981681    43.64663978     0.72297241
 C      6   1   2     2.588096052353   127.24560283     1.16512150
 C      7   6   1     2.856074196101   111.35686998   176.67956037
 C      8   7   6     2.916967597424   102.20898485    13.11530211
 C      6   1   2     2.550666325412   122.63215241   183.37318882
 C      9   8   7     2.895794011557   112.77664995   105.03734026
 C      8   7   6     2.901187740173   111.37164823   251.45860928
 C     12   8   7     2.879909049382   112.50920958   185.52321196
 C     13  12   8     2.856573542404   112.64445898   177.46814922
 O     14  13  12     2.278361728128   125.08662567   340.38500786
 O     14  13  12     2.540341939297   111.14830867   161.04362100
 N      1   2   3     3.806576030773   134.66866264     1.99036412
 C     17   1   2     2.567485764510   126.87482816   357.69144692
 C     18  17   1     2.732424474260   110.13316003   179.72837459
 C     19  18  17     2.600878307106   106.53231770     0.37739225
 C     17   1   2     2.596590295149   125.61365444   177.59506666
 C     19  18  17     2.817355252431   125.23758309   182.18112390
 C     20  19  18     2.743024849138   129.45157536   180.80476837
 C     23  20  19     2.524548002254   127.12610259   333.72833071
 N      1   2   3     3.882368856727   133.59421682   180.89498556
 C     25   1   2     2.569137632088   125.15624580   181.97463487
 C     26  25   1     2.728345011491   110.21707011   179.85213705
 C     27  26  25     2.590966844026   106.54412342     0.26046554
 C     25   1   2     2.596031953574   127.86735246     1.97620977
 C     27  26  25     2.821532765249   125.25889970   180.66305093
 C     28  27  26     2.825670307508   127.76173296   182.26827086
 C     31  28  27     2.901020199782   112.80223231    91.51067135
 N      1   2   3     3.789940315278    46.20171862   182.09124075
 C     33   1   2     2.628609397886   131.46322253   178.53647119
 C     34  33   1     2.730734394142   110.04801695   182.27813617
 C     35  34  33     2.622118519145   104.82885546   359.88862450
 C     33   1   2     2.513415324504   122.47532434     0.94304293
 C     35  34  33     2.815274199803   126.80960458   179.58057088
 C     36  35  34     2.748479761051   144.19495672   179.56518189
 O     39  36  35     2.281343907192   130.82562105   358.58789359
 C      2   1   3     2.868016103299   164.35575665   177.50215655
 C     41   2   1     2.854152044011   114.53659303   237.78801913
 O     42  41   2     2.278437095426   125.21920743    28.62695551
 O     42  41   2     2.536677314864   110.90379824   207.38963558
 C     44  42  41     2.712368187377   115.84767491   185.77235653
 C     16  14  13     2.750791521371   115.93602451   178.09424862
 C     46  16  14     2.810283966908   107.82408391   176.39128295
 C     47  46  16     2.523672398318   126.86357787   240.13166419
 C     48  47  46     2.842661858662   124.46393816     1.53589320
 C     48  47  46     2.848655741088   120.18853641   182.08211459
 C     50  48  47     2.900887600459   113.94616119   113.82673898
 C     51  50  48     2.886537295005   112.30801206   179.41735962
 C     52  51  50     2.901156399672   115.07823818   183.22502876
 C     53  52  51     2.893245973588   111.74457360   294.54639931
 C     53  52  51     2.900902708747   110.00198802   169.55329475
 C     55  53  52     2.887497783577   115.31140995   188.00077823
 C     56  55  53     2.887337037401   112.52332946   175.22595773
 C     57  56  55     2.901112981998   115.31959895   183.81369614
 C     58  57  56     2.892856620643   111.83105398   295.92296269
 C     58  57  56     2.901201017988   109.98772544   171.11282683
 C     60  58  57     2.887477976544   115.32662168   188.36114646
 C     61  60  58     2.887389511672   112.54865178   175.09142631
 C     62  61  60     2.899197389790   115.21877166   175.32659430
 C     63  62  61     2.892273269893   112.37773016    62.43618717
 C     63  62  61     2.891140571812   110.49264646   186.37032651
 H      3   1   2     2.044245644720   178.03369337   246.95217603
 H      4   1  33     2.042910268983   179.67226140   109.10243791
 H      5   1   2     2.044957130545   179.25352134   117.53697296
 H      8   7   6     2.065375011691   110.02050629   130.63440572
 H      9   8   7     2.064637731945   111.35078720   227.65559267
 H     11   9   8     2.064018975432   110.48570164    64.28463475
 H     11   9   8     2.061809159403   111.25922898   184.51660560
 H     11   9   8     2.063451460571   110.61375920   304.69831410
 H     12   8   7     2.058741448386   110.16398147   307.03693870
 H     12   8   7     2.066940882240   109.31283122    63.14696688
 H     13  12   8     2.062011738556   112.31783307   300.36521265
 H     13  12   8     2.071038352894   110.12438865    58.22254394
 H     22  19  18     2.060403876546   111.43379415    26.30205799
 H     22  19  18     2.062112288937   110.80820574   146.57513737
 H     22  19  18     2.068993941328   111.91932658   266.14699076
 H     23  20  19     2.051708778307   115.46876553   154.25467552
 H     24  23  20     2.044938808660   120.64931197   179.51173494
 H     24  23  20     2.042786905064   122.66867946   357.82047717
 H     30  27  26     2.067402176831   111.58670526    66.88218537
 H     30  27  26     2.059535405358   111.34243960   186.78889270
 H     30  27  26     2.065495947906   111.63089619   307.03601772
 H     31  28  27     2.065793058937   109.87990608   213.77447853
 H     31  28  27     2.064866280067   109.52404781   329.62305820
 H     32  31  28     2.064011320482   111.03983592   179.49665320
 H     32  31  28     2.062969997966   110.78182354   299.74471277
 H     32  31  28     2.062805757869   110.91481554    59.11175549
 H     38  35  34     2.065958268220   111.39260199    56.76947194
 H     38  35  34     2.057337067839   110.51508040   177.25242932
 H     38  35  34     2.066742552556   111.24366744   297.32442143
 H     41   2   1     2.063342672771   113.45746400   112.60821853
 H     45  44  42     2.059675196402   110.56657729   299.19395487
 H     45  44  42     2.058800085410   110.29001910    59.93697327
 H     45  44  42     2.053154797254   105.57310553   179.41657570
 H     46  16  14     2.065688053147   107.62327232   296.87668026
 H     46  16  14     2.054408156300   108.65137100    52.88918616
 H     47  46  16     2.052949463210   114.85632311    60.90451933
 H     49  48  47     2.066542551928   110.03786682   134.98372840
 H     49  48  47     2.066468440772   111.17010710   252.87050003
 H     49  48  47     2.055709651459   113.18723214    14.06021615
 H     50  48  47     2.073269180030   108.84654230   235.16917089
 H     50  48  47     2.065502590993   109.46381553   351.48176087
 H     51  50  48     2.065686891209   108.48613637   302.00526767
 H     51  50  48     2.068239747800   109.89914245    58.07575953
 H     52  51  50     2.070558215575   108.37733942   304.87809236
 H     52  51  50     2.073178241497   109.45671986    60.08109449
 H     53  52  51     2.076124679155   107.48942116    52.84898143
 H     54  53  52     2.060952095656   111.70967107    57.08510038
 H     54  53  52     2.060571305511   111.69577010   177.17336907
 H     54  53  52     2.068431193553   110.49338561   297.11876573
 H     55  53  52     2.070494620007   108.34990725   309.86932652
 H     55  53  52     2.073530430084   108.96307873    64.72478856
 H     56  55  53     2.063192857464   109.73417016   297.73589370
 H     56  55  53     2.072866569669   109.18287149    53.84271799
 H     57  56  55     2.070667986500   108.55144520   305.63648243
 H     57  56  55     2.073423306182   109.31761477    60.77270626
 H     58  57  56     2.075864570548   107.50312798    54.35411304
 H     59  58  57     2.068642290326   110.43194757   298.33047336
 H     59  58  57     2.060979552090   111.79940661    58.27252283
 H     59  58  57     2.060775455023   111.70819168   178.41048480
 H     60  58  57     2.070712788505   108.37083783   310.16084563
 H     60  58  57     2.073358358534   108.92946885    65.00155316
 H     61  60  58     2.068225882851   110.16503112   296.70845958
 H     61  60  58     2.068618255392   108.80902643    52.84696571
 H     62  61  60     2.073852647832   109.38484606   298.25766262
 H     62  61  60     2.070952095832   108.61617800    53.43777342
 H     63  62  61     2.074187102777   107.55338088   303.85862343
 H     64  63  62     2.068337101264   110.64487396    59.29474490
 H     64  63  62     2.064366106672   110.92854484   178.68358653
 H     64  63  62     2.061476925239   112.09956099   298.94774306
 H     65  63  62     2.064655003018   111.36705533    57.06330813
 H     65  63  62     2.064359379984   111.33184149   177.57061750
 H     65  63  62     2.067680245315   110.71834319   297.27783005

---------------------
BASIS SET INFORMATION
---------------------
There are 5 groups of distinct atoms

 Group   1 Type Mg  : 14s8p3d contracted to 5s4p3d pattern {73211/5111/111}
 Group   2 Type C   : 11s6p2d1f contracted to 5s3p2d1f pattern {62111/411/11/1}
 Group   3 Type N   : 11s6p2d1f contracted to 5s3p2d1f pattern {62111/411/11/1}
 Group   4 Type O   : 11s6p2d1f contracted to 5s3p2d1f pattern {62111/411/11/1}
 Group   5 Type H   : 5s1p contracted to 3s1p pattern {311/1}

Atom   0Mg   basis set group =>   1
Atom   1C    basis set group =>   2
Atom   2C    basis set group =>   2
Atom   3C    basis set group =>   2
Atom   4C    basis set group =>   2
Atom   5N    basis set group =>   3
Atom   6C    basis set group =>   2
Atom   7C    basis set group =>   2
Atom   8C    basis set group =>   2
Atom   9C    basis set group =>   2
Atom  10C    basis set group =>   2
Atom  11C    basis set group =>   2
Atom  12C    basis set group =>   2
Atom  13C    basis set group =>   2
Atom  14O    basis set group =>   4
Atom  15O    basis set group =>   4
Atom  16N    basis set group =>   3
Atom  17C    basis set group =>   2
Atom  18C    basis set group =>   2
Atom  19C    basis set group =>   2
Atom  20C    basis set group =>   2
Atom  21C    basis set group =>   2
Atom  22C    basis set group =>   2
Atom  23C    basis set group =>   2
Atom  24N    basis set group =>   3
Atom  25C    basis set group =>   2
Atom  26C    basis set group =>   2
Atom  27C    basis set group =>   2
Atom  28C    basis set group =>   2
Atom  29C    basis set group =>   2
Atom  30C    basis set group =>   2
Atom  31C    basis set group =>   2
Atom  32N    basis set group =>   3
Atom  33C    basis set group =>   2
Atom  34C    basis set group =>   2
Atom  35C    basis set group =>   2
Atom  36C    basis set group =>   2
Atom  37C    basis set group =>   2
Atom  38C    basis set group =>   2
Atom  39O    basis set group =>   4
Atom  40C    basis set group =>   2
Atom  41C    basis set group =>   2
Atom  42O    basis set group =>   4
Atom  43O    basis set group =>   4
Atom  44C    basis set group =>   2
Atom  45C    basis set group =>   2
Atom  46C    basis set group =>   2
Atom  47C    basis set group =>   2
Atom  48C    basis set group =>   2
Atom  49C    basis set group =>   2
Atom  50C    basis set group =>   2
Atom  51C    basis set group =>   2
Atom  52C    basis set group =>   2
Atom  53C    basis set group =>   2
Atom  54C    basis set group =>   2
Atom  55C    basis set group =>   2
Atom  56C    basis set group =>   2
Atom  57C    basis set group =>   2
Atom  58C    basis set group =>   2
Atom  59C    basis set group =>   2
Atom  60C    basis set group =>   2
Atom  61C    basis set group =>   2
Atom  62C    basis set group =>   2
Atom  63C    basis set group =>   2
Atom  64C    basis set group =>   2
Atom  65H    basis set group =>   5
Atom  66H    basis set group =>   5
Atom  67H    basis set group =>   5
Atom  68H    basis set group =>   5
Atom  69H    basis set group =>   5
Atom  70H    basis set group =>   5
Atom  71H    basis set group =>   5
Atom  72H    basis set group =>   5
Atom  73H    basis set group =>   5
Atom  74H    basis set group =>   5
Atom  75H    basis set group =>   5
Atom  76H    basis set group =>   5
Atom  77H    basis set group =>   5
Atom  78H    basis set group =>   5
Atom  79H    basis set group =>   5
Atom  80H    basis set group =>   5
Atom  81H    basis set group =>   5
Atom  82H    basis set group =>   5
Atom  83H    basis set group =>   5
Atom  84H    basis set group =>   5
Atom  85H    basis set group =>   5
Atom  86H    basis set group =>   5
Atom  87H    basis set group =>   5
Atom  88H    basis set group =>   5
Atom  89H    basis set group =>   5
Atom  90H    basis set group =>   5
Atom  91H    basis set group =>   5
Atom  92H    basis set group =>   5
Atom  93H    basis set group =>   5
Atom  94H    basis set group =>   5
Atom  95H    basis set group =>   5
Atom  96H    basis set group =>   5
Atom  97H    basis set group =>   5
Atom  98H    basis set group =>   5
Atom  99H    basis set group =>   5
Atom 100H    basis set group =>   5
Atom 101H    basis set group =>   5
Atom 102H    basis set group =>   5
Atom 103H    basis set group =>   5
Atom 104H    basis set group =>   5
Atom 105H    basis set group =>   5
Atom 106H    basis set group =>   5
Atom 107H    basis set group =>   5
Atom 108H    basis set group =>   5
Atom 109H    basis set group =>   5
Atom 110H    basis set group =>   5
Atom 111H    basis set group =>   5
Atom 112H    basis set group =>   5
Atom 113H    basis set group =>   5
Atom 114H    basis set group =>   5
Atom 115H    basis set group =>   5
Atom 116H    basis set group =>   5
Atom 117H    basis set group =>   5
Atom 118H    basis set group =>   5
Atom 119H    basis set group =>   5
Atom 120H    basis set group =>   5
Atom 121H    basis set group =>   5
Atom 122H    basis set group =>   5
Atom 123H    basis set group =>   5
Atom 124H    basis set group =>   5
Atom 125H    basis set group =>   5
Atom 126H    basis set group =>   5
Atom 127H    basis set group =>   5
Atom 128H    basis set group =>   5
Atom 129H    basis set group =>   5
Atom 130H    basis set group =>   5
Atom 131H    basis set group =>   5
Atom 132H    basis set group =>   5
Atom 133H    basis set group =>   5
Atom 134H    basis set group =>   5
Atom 135H    basis set group =>   5
Atom 136H    basis set group =>   5
---------------------------------
AUXILIARY/J BASIS SET INFORMATION
---------------------------------
There are 5 groups of distinct atoms

 Group   1 Type Mg  : 14s5p5d2f1g contracted to 8s4p4d1f1g pattern {71111111/2111/2111/2/1}
 Group   2 Type C   : 12s5p4d2f1g contracted to 6s4p3d1f1g pattern {711111/2111/211/2/1}
 Group   3 Type N   : 12s5p4d2f1g contracted to 6s4p3d1f1g pattern {711111/2111/211/2/1}
 Group   4 Type O   : 12s5p4d2f1g contracted to 6s4p3d1f1g pattern {711111/2111/211/2/1}
 Group   5 Type H   : 5s2p1d contracted to 3s1p1d pattern {311/2/1}

Atom   0Mg   basis set group =>   1
Atom   1C    basis set group =>   2
Atom   2C    basis set group =>   2
Atom   3C    basis set group =>   2
Atom   4C    basis set group =>   2
Atom   5N    basis set group =>   3
Atom   6C    basis set group =>   2
Atom   7C    basis set group =>   2
Atom   8C    basis set group =>   2
Atom   9C    basis set group =>   2
Atom  10C    basis set group =>   2
Atom  11C    basis set group =>   2
Atom  12C    basis set group =>   2
Atom  13C    basis set group =>   2
Atom  14O    basis set group =>   4
Atom  15O    basis set group =>   4
Atom  16N    basis set group =>   3
Atom  17C    basis set group =>   2
Atom  18C    basis set group =>   2
Atom  19C    basis set group =>   2
Atom  20C    basis set group =>   2
Atom  21C    basis set group =>   2
Atom  22C    basis set group =>   2
Atom  23C    basis set group =>   2
Atom  24N    basis set group =>   3
Atom  25C    basis set group =>   2
Atom  26C    basis set group =>   2
Atom  27C    basis set group =>   2
Atom  28C    basis set group =>   2
Atom  29C    basis set group =>   2
Atom  30C    basis set group =>   2
Atom  31C    basis set group =>   2
Atom  32N    basis set group =>   3
Atom  33C    basis set group =>   2
Atom  34C    basis set group =>   2
Atom  35C    basis set group =>   2
Atom  36C    basis set group =>   2
Atom  37C    basis set group =>   2
Atom  38C    basis set group =>   2
Atom  39O    basis set group =>   4
Atom  40C    basis set group =>   2
Atom  41C    basis set group =>   2
Atom  42O    basis set group =>   4
Atom  43O    basis set group =>   4
Atom  44C    basis set group =>   2
Atom  45C    basis set group =>   2
Atom  46C    basis set group =>   2
Atom  47C    basis set group =>   2
Atom  48C    basis set group =>   2
Atom  49C    basis set group =>   2
Atom  50C    basis set group =>   2
Atom  51C    basis set group =>   2
Atom  52C    basis set group =>   2
Atom  53C    basis set group =>   2
Atom  54C    basis set group =>   2
Atom  55C    basis set group =>   2
Atom  56C    basis set group =>   2
Atom  57C    basis set group =>   2
Atom  58C    basis set group =>   2
Atom  59C    basis set group =>   2
Atom  60C    basis set group =>   2
Atom  61C    basis set group =>   2
Atom  62C    basis set group =>   2
Atom  63C    basis set group =>   2
Atom  64C    basis set group =>   2
Atom  65H    basis set group =>   5
Atom  66H    basis set group =>   5
Atom  67H    basis set group =>   5
Atom  68H    basis set group =>   5
Atom  69H    basis set group =>   5
Atom  70H    basis set group =>   5
Atom  71H    basis set group =>   5
Atom  72H    basis set group =>   5
Atom  73H    basis set group =>   5
Atom  74H    basis set group =>   5
Atom  75H    basis set group =>   5
Atom  76H    basis set group =>   5
Atom  77H    basis set group =>   5
Atom  78H    basis set group =>   5
Atom  79H    basis set group =>   5
Atom  80H    basis set group =>   5
Atom  81H    basis set group =>   5
Atom  82H    basis set group =>   5
Atom  83H    basis set group =>   5
Atom  84H    basis set group =>   5
Atom  85H    basis set group =>   5
Atom  86H    basis set group =>   5
Atom  87H    basis set group =>   5
Atom  88H    basis set group =>   5
Atom  89H    basis set group =>   5
Atom  90H    basis set group =>   5
Atom  91H    basis set group =>   5
Atom  92H    basis set group =>   5
Atom  93H    basis set group =>   5
Atom  94H    basis set group =>   5
Atom  95H    basis set group =>   5
Atom  96H    basis set group =>   5
Atom  97H    basis set group =>   5
Atom  98H    basis set group =>   5
Atom  99H    basis set group =>   5
Atom 100H    basis set group =>   5
Atom 101H    basis set group =>   5
Atom 102H    basis set group =>   5
Atom 103H    basis set group =>   5
Atom 104H    basis set group =>   5
Atom 105H    basis set group =>   5
Atom 106H    basis set group =>   5
Atom 107H    basis set group =>   5
Atom 108H    basis set group =>   5
Atom 109H    basis set group =>   5
Atom 110H    basis set group =>   5
Atom 111H    basis set group =>   5
Atom 112H    basis set group =>   5
Atom 113H    basis set group =>   5
Atom 114H    basis set group =>   5
Atom 115H    basis set group =>   5
Atom 116H    basis set group =>   5
Atom 117H    basis set group =>   5
Atom 118H    basis set group =>   5
Atom 119H    basis set group =>   5
Atom 120H    basis set group =>   5
Atom 121H    basis set group =>   5
Atom 122H    basis set group =>   5
Atom 123H    basis set group =>   5
Atom 124H    basis set group =>   5
Atom 125H    basis set group =>   5
Atom 126H    basis set group =>   5
Atom 127H    basis set group =>   5
Atom 128H    basis set group =>   5
Atom 129H    basis set group =>   5
Atom 130H    basis set group =>   5
Atom 131H    basis set group =>   5
Atom 132H    basis set group =>   5
Atom 133H    basis set group =>   5
Atom 134H    basis set group =>   5
Atom 135H    basis set group =>   5
Atom 136H    basis set group =>   5


           ************************************************************
           *        Program running with 4 parallel MPI-processes     *
           *              working on a common directory               *
           ************************************************************
------------------------------------------------------------------------------
                             ORCA STARTUP CALCULATIONS
                           -- RI-GTO INTEGRALS CHOSEN --
------------------------------------------------------------------------------
------------------------------------------------------------------------------
                   ___                                                        
                  /   \      - P O W E R E D   B Y -                         
                 /     \                                                     
                 |  |  |   _    _      __       _____    __    __             
                 |  |  |  | |  | |    /  \     |  _  \  |  |  /  |          
                  \  \/   | |  | |   /    \    | | | |  |  | /  /          
                 / \  \   | |__| |  /  /\  \   | |_| |  |  |/  /          
                |  |  |   |  __  | /  /__\  \  |    /   |      \           
                |  |  |   | |  | | |   __   |  |    \   |  |\   \          
                \     /   | |  | | |  |  |  |  | |\  \  |  | \   \       
                 \___/    |_|  |_| |__|  |__|  |_| \__\ |__|  \__/        
                                                                              
                      - O R C A' S   B I G   F R I E N D -                    
                                      &                                       
                       - I N T E G R A L  F E E D E R -                       
                                                                              
 v1 FN, 2020, v2 2021, v3 2022-2024                                           
------------------------------------------------------------------------------


----------------------
SHARK INTEGRAL PACKAGE
----------------------

Number of atoms                             ...    137
Number of basis functions                   ...   2448
Number of shells                            ...   1004
Maximum angular momentum                    ...      3
Integral batch strategy                     ... SHARK/LIBINT Hybrid
RI-J (if used) integral strategy            ... SPLIT-RIJ (Revised 2003 algorithm where possible)
Printlevel                                  ...      1
Contraction scheme used                     ... SEGMENTED contraction
Prescreening option                         ... SCHWARTZ
   Thresh                                   ... 2.500e-11
   Tcut                                     ... 2.500e-12
   Tpresel                                  ... 2.500e-12 
Coulomb Range Separation                    ... NOT USED
Exchange Range Separation                   ... NOT USED
Multipole approximations                    ... NOT USED
Finite Nucleus Model                        ... NOT USED
CABS basis                                  ... NOT available
Auxiliary Coulomb fitting basis             ... AVAILABLE
   # of basis functions in Aux-J            ...   3984
   # of shells in Aux-J                     ...   1338
   Maximum angular momentum in Aux-J        ...      4
Auxiliary J/K fitting basis                 ... NOT available
Auxiliary Correlation fitting basis         ... NOT available
Auxiliary 'external' fitting basis          ... NOT available

Checking pre-screening integrals            ... done (  0.0 sec) Dimension = 1004
   => SHARK Basis and OBASIS are compatible. Storing Pre-screening
Shell pair information
Shell pair cut-off parameter TPreSel        ...   2.5e-12
Total number of shell pairs                 ...    504510
Shell pairs after pre-screening             ...    146480
Total number of primitive shell pairs       ...   1511112
Primitive shell pairs kept                  ...    279455
          la=0 lb=0:  40911 shell pairs
          la=1 lb=0:  44353 shell pairs
          la=1 lb=1:  12180 shell pairs
          la=2 lb=0:  19510 shell pairs
          la=2 lb=1:  10927 shell pairs
          la=2 lb=2:   2499 shell pairs
          la=3 lb=0:   8664 shell pairs
          la=3 lb=1:   4889 shell pairs
          la=3 lb=2:   2077 shell pairs
          la=3 lb=3:    470 shell pairs

Checking whether 4 symmetric matrices of dimension 2448 fit in memory
:Max Core in MB      =   2200.00
 MB in use           =    175.73
 MB left             =   2024.27
 MB needed           =     91.48
 Data fit in memory  = YES
Calculating RI/J V-Matrix + Cholesky decomp.... done (  1.9 sec)
Calculating Nuclear repulsion               ... done (  0.0 sec) ENN=   8806.212563571489 Eh

Diagonalization of the overlap matrix:
Smallest eigenvalue                        ... 3.523e-06
Time for diagonalization                   ...    2.790 sec
Threshold for overlap eigenvalues          ... 1.000e-07
Number of eigenvalues below threshold      ... 0
Time for construction of square roots      ...    3.203 sec
Total time needed                          ...    6.064 sec

-------------------
DFT GRID GENERATION
-------------------

General Integration Accuracy     IntAcc      ... 4.959
Radial Grid Type                 RadialGrid  ... OptM3 with GC (2021)
Angular Grid (max. ang.)         AngularGrid ... 6 (Lebedev-590)
Angular grid pruning method      GridPruning ... 4 (adaptive)
Weight generation scheme         WeightScheme... mBecke (2022)
Basis function cutoff            BFCut       ... 1.0000e-11
Integration weight cutoff        WCut        ... 1.0000e-14
Partially contracted basis set               ... off
Rotationally invariant grid construction     ... off
Angular grids for H and He will be reduced by one unit

Total number of grid points                  ...  1524069
Total number of batches                      ...    23877
Average number of points per batch           ...       63
Average number of grid points per atom       ...    11125
Grids setup in  34.6 sec
Initializing property integral containers    ... done (  0.0 sec)

SHARK setup successfully completed in  46.7 seconds

Maximum memory used throughout the entire STARTUP-calculation: 524.3 MB


           ************************************************************
           *        Program running with 4 parallel MPI-processes     *
           *              working on a common directory               *
           ************************************************************
-------------------------------------------------------------------------------
                                 ORCA GUESS
                   Start orbitals & Density for SCF / CASSCF
-------------------------------------------------------------------------------

------------
SCF SETTINGS
------------
Hamiltonian:
 Density Functional     Method          .... DFT(GTOs)
 Exchange Functional    Exchange        .... TPSS
 Correlation Functional Correlation     .... TPSS
 LDA part of GGA corr.  LDAOpt          .... PW91-LDA
 Gradients option       PostSCFGGA      .... off
   NL short-range parameter             ....  5.000000
 RI-approximation to the Coulomb term is turned on
   Number of AuxJ basis functions       .... 3984


General Settings:
 Integral files         IntName         .... tddft
 Hartree-Fock type      HFTyp           .... RHF
 Total Charge           Charge          ....    0
 Multiplicity           Mult            ....    1
 Number of Electrons    NEL             ....  482
 Basis Dimension        Dim             .... 2448
 Nuclear Repulsion      ENuc            ....   8806.2125635715 Eh

Convergence Acceleration:
 AO-DIIS                CNVDIIS         .... on
   Start iteration      DIISMaxIt       ....    12
   Startup error        DIISStart       ....  0.200000
   # of expansion vecs  DIISMaxEq       ....     5
   Bias factor          DIISBfac        ....   1.050
   Max. coefficient     DIISMaxC        ....  10.000
 MO-DIIS                CNVKDIIS        .... off
 Trust-Rad. Augm. Hess. CNVTRAH         .... auto
   Auto Start mean grad. ratio tolernc. ....  1.125000
   Auto Start start iteration           ....    50
   Auto Start num. interpolation iter.  ....    10
   Max. Number of Micro iterations      ....    24
   Max. Number of Macro iterations      .... Maxiter - #DIIS iter
   Number of Davidson start vectors     ....     2
   Converg. threshold    (grad. norm)   ....   1.000e-05
   Grad. Scal. Fac. for Micro threshold ....   0.100
   Minimum threshold for Micro iter.    ....   1.000e-02
   NR start threshold (gradient norm)   ....   1.000e-04
   Initial trust radius                 ....   0.400
   Minimum AH scaling param. (alpha)    ....   1.000
   Maximum AH scaling param. (alpha)    .... 1000.000
   Quad. conv. algorithm                .... NR
   White noise on init. David. guess    .... on
   Maximum white noise                  ....   0.010
   Pseudo random numbers                .... off
   Inactive MOs                         .... canonical
   Orbital update algorithm             .... Taylor
   Preconditioner                       .... Diag
   Full preconditioner red. dimension   ....   250
 SOSCF                 CNVSOSCF           .... on
   Start iteration     SOSCFMaxIt         ....   150
   Startup grad/error  SOSCFStart         ....  0.003300
   Hessian update      SOSCFHessUp        .... L-BFGS
   Autom. constraints  SOSCFAutoConstrain .... off
 Level Shifting         CNVShift        .... on
   Level shift para.    LevelShift      ....    0.2500
   Turn off err/grad.   ShiftErr        ....    0.0010
 Zerner damping         CNVZerner       .... off
 Static damping         CNVDamp         .... on
   Fraction old density DampFac         ....    0.7000
   Max. Damping (<1)    DampMax         ....    0.9800
   Min. Damping (>=0)   DampMin         ....    0.0000
   Turn off err/grad.   DampErr         ....    0.1000

SCF Procedure:
 Maximum # iterations   MaxIter         ....   125
 SCF integral mode      SCFMode         .... Direct
   Integral package                     .... SHARK and LIBINT hybrid scheme
 Reset frequency        DirectResetFreq ....    20
 Integral Threshold     Thresh          ....  2.500e-11 Eh
 Primitive CutOff       TCut            ....  2.500e-12 Eh

Convergence Tolerance:
 Convergence Check Mode ConvCheckMode   .... Total+1el-Energy
 Convergence forced     ConvForced      .... 1
 Energy Change          TolE            ....  1.000e-08 Eh
 1-El. energy change                    ....  1.000e-05 Eh
 Orbital Gradient       TolG            ....  1.000e-05
 Orbital Rotation angle TolX            ....  1.000e-05
 DIIS Error             TolErr          ....  5.000e-07

------------------------------
INITIAL GUESS: MODEL POTENTIAL
------------------------------
Loading Hartree-Fock densities                     ... done
Calculating cut-offs                               ... done
Initializing the effective Hamiltonian             ... done
Setting up the integral package (SHARK)            ... done
Starting the Coulomb interaction                   ... done (  16.5 sec)
Making the grid                                    ... done (   3.2 sec)
Mapping shells                                     ... done
Starting the XC term evaluation                    ... done (   2.9 sec)
  promolecular density results
     # of electrons  =    481.975676764
     EX              =   -385.790702513
     EC              =    -16.191639786
     EX+EC           =   -401.982342299
Transforming the Hamiltonian                       ... done (   1.3 sec)
Diagonalizing the Hamiltonian                      ... done (   1.9 sec)
Back transforming the eigenvectors                 ... done (   0.7 sec)
Now organizing SCF variables                       ... done
                      ------------------
                      INITIAL GUESS DONE (  27.1 sec)
                      ------------------
             **** ENERGY FILE WAS UPDATED (tddft.en.tmp) ****
Finished Guess after  35.6 sec
Maximum memory used throughout the entire GUESS-calculation: 332.6 MB


           ************************************************************
           *        Program running with 4 parallel MPI-processes     *
           *              working on a common directory               *
           ************************************************************

-------------------------------------------------------------------------------------------
                                      ORCA LEAN-SCF
                              memory conserving SCF solver
-------------------------------------------------------------------------------------------

--------------------
CPCM SOLVATION MODEL
--------------------
CPCM parameters:
  Epsilon                                         ...       8.9990
  Refrac                                          ...       1.4242
  Rsolv                                           ...       1.3000
  Surface type                                    ... GAUSSIAN VDW
  Discretization scheme                           ... Constant charge density
    Threshold for H atoms                         ...       5.0000 (charges/Ang^2)
    Threshold for non-H atoms                     ...       5.0000 (charges/Ang^2)
  Epsilon function type                           ...         CPCM
Solvent:                                          ... DICHLOROMETHANE
Radii:
  Scheme                                          ... Element-dependent radii
  Radius for Mg used is    3.9231 Bohr (=   2.0760 Ang.)
  Radius for C  used is    3.8550 Bohr (=   2.0400 Ang.)
  Radius for N  used is    3.5149 Bohr (=   1.8600 Ang.)
  Radius for O  used is    3.4469 Bohr (=   1.8240 Ang.)
  Radius for H  used is    2.4944 Bohr (=   1.3200 Ang.)
Calculating surface                               ...        done! (  0.1s)
Cavity surface points                             ...        10901
Cavity Volume                                     ...    7471.3652
Cavity Surface-area                               ...    3694.6092
Calculating surface distance matrix               ...        done! (  3.1s)
Performing Cholesky decomposition & store         ...        done! (  8.7s)
Overall time for CPCM initialization              ...                11.9s

----------------------------------------D-I-I-S--------------------------------------------
Iteration    Energy (Eh)           Delta-E    RMSDP     MaxDP     DIISErr   Damp  Time(sec)
-------------------------------------------------------------------------------------------
               ***  Starting incremental Fock matrix formation  ***
    1    -2934.4439754405666463     0.00e+00  2.14e-03  3.08e-01  2.73e-01  0.700 130.0
Warning: op=0 Small HOMO/LUMO gap (   0.056) - skipping pre-diagonalization
         Will do a full diagonalization
    2    -2935.2540337781338167    -8.10e-01  1.89e-03  3.05e-01  9.21e-02  0.700 123.9
                               ***Turning on AO-DIIS***
    3    -2935.5542866348732787    -3.00e-01  6.99e-04  6.87e-02  3.02e-02  0.700 137.8
    4    -2935.7296372434047953    -1.75e-01  1.12e-03  8.50e-02  1.43e-02  0.000 134.7
    5    -2936.1186395616368827    -3.89e-01  5.42e-04  9.23e-02  9.21e-03  0.000 129.0
    6    -2936.1218222902371053    -3.18e-03  1.43e-04  1.79e-02  4.01e-03  0.000 116.4
    7    -2936.1220893590361811    -2.67e-04  6.43e-05  8.51e-03  3.33e-03  0.000 128.2
                              *** Initializing SOSCF ***
---------------------------------------S-O-S-C-F--------------------------------------
Iteration    Energy (Eh)           Delta-E    RMSDP     MaxDP     MaxGrad    Time(sec)
--------------------------------------------------------------------------------------
    8    -2936.1221518279689917    -6.25e-05  2.44e-05  3.33e-03  6.53e-04   129.8
               *** Restarting incremental Fock matrix formation ***
    9    -2936.1221634627981985    -1.16e-05  3.45e-05  3.81e-03  1.06e-04   165.1
   10    -2936.1221646285448514    -1.17e-06  2.23e-05  3.03e-03  1.60e-04   116.5
   11    -2936.1221656692559918    -1.04e-06  1.82e-05  1.68e-03  7.44e-05   100.7
   12    -2936.1221658742852014    -2.05e-07  1.11e-05  1.66e-03  2.19e-05    95.4
   13    -2936.1221657689493441     1.05e-07  8.08e-06  8.94e-04  1.37e-05   107.6
   14    -2936.1221660251903813    -2.56e-07  7.88e-06  7.21e-04  3.33e-06    99.2
   15    -2936.1221659755537985     4.96e-08  4.77e-06  5.09e-04  4.34e-06    85.7
   16    -2936.1221659420225478     3.35e-08  8.22e-06  1.23e-03  1.46e-06   106.2
                  *** Gradient check signals convergence ***

               *****************************************************
               *                     SUCCESS                       *
               *           SCF CONVERGED AFTER  16 CYCLES          *
               *****************************************************

             **** ENERGY FILE WAS UPDATED (tddft.en.tmp) ****

----------------
TOTAL SCF ENERGY
----------------

Total Energy       :      -2936.12216593919766 Eh          -79895.94597 eV

Components:
Nuclear Repulsion  :       8806.21256357148923 Eh          239629.22637 eV
Electronic Energy  :     -11742.29785516591619 Eh         -319524.16893 eV
One Electron Energy:     -21532.49277181076832 Eh         -585928.91637 eV
Two Electron Energy:       9790.19491664485213 Eh          266404.74744 eV
CPCM Dielectric    :         -0.03687434477023 Eh              -1.00340 eV

Virial components:
Potential Energy   :      -5860.01872401040237 Eh         -159459.21623 eV
Kinetic Energy     :       2923.89655807120425 Eh           79563.27026 eV
Virial Ratio       :          2.00418127236213

DFT components:
N(Alpha)           :      241.000002122096 electrons
N(Beta)            :      241.000002122096 electrons
N(Total)           :      482.000004244193 electrons
E(X)               :     -398.244634210138 Eh       
E(C)               :      -16.159492661653 Eh       
E(XC)              :     -414.404126871791 Eh       

CPCM Solvation Model Properties:
Surface-charge          :         -0.07321597998091
Corrected charge        :          0.00000000000000
Outlying charge corr.   :          0.00013864208367 Eh               0.00377 eV
Free-energy (cav+disp)  :  This term is not implemented in the current solvation scheme

---------------
SCF CONVERGENCE
---------------

  Last Energy change         ...   -3.3531e-08  Tolerance :   1.0000e-08
  Last MAX-Density change    ...    1.2318e-03  Tolerance :   1.0000e-07
  Last RMS-Density change    ...    8.2180e-06  Tolerance :   5.0000e-09
  Last DIIS Error            ...    6.5297e-04  Tolerance :   5.0000e-07
  Last Orbital Gradient      ...    1.4649e-06  Tolerance :   1.0000e-05
  Last Orbital Rotation      ...    1.0265e-05  Tolerance :   1.0000e-05


----------------
ORBITAL ENERGIES
----------------

  NO   OCC          E(Eh)            E(eV) 
   0   2.0000     -46.383555     -1262.1607 
   1   2.0000     -18.932261      -515.1730 
   2   2.0000     -18.925635      -514.9927 
   3   2.0000     -18.876547      -513.6570 
   4   2.0000     -18.876314      -513.6506 
   5   2.0000     -18.873390      -513.5710 
   6   2.0000     -14.110586      -383.9686 
   7   2.0000     -14.089167      -383.3857 
   8   2.0000     -14.087656      -383.3446 
   9   2.0000     -14.084452      -383.2574 
  10   2.0000     -10.110609      -275.1237 
  11   2.0000     -10.105772      -274.9920 
  12   2.0000     -10.077223      -274.2152 
  13   2.0000     -10.038989      -273.1748 
  14   2.0000     -10.034896      -273.0634 
  15   2.0000     -10.026945      -272.8470 
  16   2.0000     -10.026811      -272.8434 
  17   2.0000     -10.020079      -272.6602 
  18   2.0000     -10.018153      -272.6078 
  19   2.0000     -10.017953      -272.6024 
  20   2.0000     -10.015293      -272.5300 
  21   2.0000     -10.013254      -272.4745 
  22   2.0000     -10.013214      -272.4734 
  23   2.0000     -10.011097      -272.4158 
  24   2.0000     -10.007648      -272.3220 
  25   2.0000      -9.997357      -272.0419 
  26   2.0000      -9.996593      -272.0211 
  27   2.0000      -9.996535      -272.0196 
  28   2.0000      -9.996088      -272.0074 
  29   2.0000      -9.995321      -271.9865 
  30   2.0000      -9.993596      -271.9396 
  31   2.0000      -9.993084      -271.9257 
  32   2.0000      -9.992307      -271.9045 
  33   2.0000      -9.991583      -271.8848 
  34   2.0000      -9.991123      -271.8723 
  35   2.0000      -9.989751      -271.8350 
  36   2.0000      -9.985323      -271.7144 
  37   2.0000      -9.984605      -271.6949 
  38   2.0000      -9.984567      -271.6939 
  39   2.0000      -9.984073      -271.6805 
  40   2.0000      -9.982727      -271.6438 
  41   2.0000      -9.982645      -271.6416 
  42   2.0000      -9.982611      -271.6407 
  43   2.0000      -9.981301      -271.6050 
  44   2.0000      -9.980573      -271.5852 
  45   2.0000      -9.979651      -271.5601 
  46   2.0000      -9.978695      -271.5341 
  47   2.0000      -9.978395      -271.5259 
  48   2.0000      -9.978131      -271.5188 
  49   2.0000      -9.978020      -271.5157 
  50   2.0000      -9.976731      -271.4807 
  51   2.0000      -9.976574      -271.4764 
  52   2.0000      -9.975268      -271.4408 
  53   2.0000      -9.973622      -271.3960 
  54   2.0000      -9.971153      -271.3289 
  55   2.0000      -9.969159      -271.2746 
  56   2.0000      -9.968847      -271.2661 
  57   2.0000      -9.968804      -271.2649 
  58   2.0000      -9.968631      -271.2602 
  59   2.0000      -9.968559      -271.2583 
  60   2.0000      -9.968465      -271.2557 
  61   2.0000      -9.965659      -271.1794 
  62   2.0000      -9.965328      -271.1704 
  63   2.0000      -9.965258      -271.1685 
  64   2.0000      -9.964517      -271.1483 
  65   2.0000      -2.917364       -79.3855 
  66   2.0000      -1.682487       -45.7828 
  67   2.0000      -1.676038       -45.6073 
  68   2.0000      -1.675335       -45.5882 
  69   2.0000      -1.041488       -28.3403 
  70   2.0000      -1.034890       -28.1608 
  71   2.0000      -0.980306       -26.6755 
  72   2.0000      -0.957400       -26.0522 
  73   2.0000      -0.952821       -25.9276 
  74   2.0000      -0.902839       -24.5675 
  75   2.0000      -0.893632       -24.3170 
  76   2.0000      -0.890222       -24.2242 
  77   2.0000      -0.881059       -23.9748 
  78   2.0000      -0.788410       -21.4537 
  79   2.0000      -0.769540       -20.9403 
  80   2.0000      -0.761073       -20.7098 
  81   2.0000      -0.759255       -20.6604 
  82   2.0000      -0.753722       -20.5098 
  83   2.0000      -0.751311       -20.4442 
  84   2.0000      -0.750996       -20.4357 
  85   2.0000      -0.743166       -20.2226 
  86   2.0000      -0.740015       -20.1368 
  87   2.0000      -0.739718       -20.1288 
  88   2.0000      -0.735994       -20.0274 
  89   2.0000      -0.723089       -19.6763 
  90   2.0000      -0.713713       -19.4211 
  91   2.0000      -0.706490       -19.2246 
  92   2.0000      -0.703106       -19.1325 
  93   2.0000      -0.694778       -18.9059 
  94   2.0000      -0.692592       -18.8464 
  95   2.0000      -0.685250       -18.6466 
  96   2.0000      -0.679909       -18.5013 
  97   2.0000      -0.675048       -18.3690 
  98   2.0000      -0.664544       -18.0832 
  99   2.0000      -0.652900       -17.7663 
 100   2.0000      -0.649049       -17.6615 
 101   2.0000      -0.642394       -17.4804 
 102   2.0000      -0.636027       -17.3072 
 103   2.0000      -0.629779       -17.1372 
 104   2.0000      -0.625114       -17.0102 
 105   2.0000      -0.624585       -16.9958 
 106   2.0000      -0.620286       -16.8788 
 107   2.0000      -0.614101       -16.7105 
 108   2.0000      -0.605278       -16.4705 
 109   2.0000      -0.600185       -16.3319 
 110   2.0000      -0.592216       -16.1150 
 111   2.0000      -0.579200       -15.7608 
 112   2.0000      -0.572942       -15.5906 
 113   2.0000      -0.564747       -15.3675 
 114   2.0000      -0.562220       -15.2988 
 115   2.0000      -0.552073       -15.0227 
 116   2.0000      -0.540734       -14.7141 
 117   2.0000      -0.533412       -14.5149 
 118   2.0000      -0.531330       -14.4582 
 119   2.0000      -0.525184       -14.2910 
 120   2.0000      -0.521969       -14.2035 
 121   2.0000      -0.514598       -14.0029 
 122   2.0000      -0.509742       -13.8708 
 123   2.0000      -0.508676       -13.8418 
 124   2.0000      -0.505876       -13.7656 
 125   2.0000      -0.499091       -13.5810 
 126   2.0000      -0.488651       -13.2969 
 127   2.0000      -0.487310       -13.2604 
 128   2.0000      -0.482174       -13.1206 
 129   2.0000      -0.477523       -12.9941 
 130   2.0000      -0.474684       -12.9168 
 131   2.0000      -0.470359       -12.7991 
 132   2.0000      -0.467172       -12.7124 
 133   2.0000      -0.464761       -12.6468 
 134   2.0000      -0.453834       -12.3495 
 135   2.0000      -0.450601       -12.2615 
 136   2.0000      -0.445501       -12.1227 
 137   2.0000      -0.441775       -12.0213 
 138   2.0000      -0.438926       -11.9438 
 139   2.0000      -0.435097       -11.8396 
 140   2.0000      -0.433843       -11.8055 
 141   2.0000      -0.431747       -11.7484 
 142   2.0000      -0.428929       -11.6717 
 143   2.0000      -0.424911       -11.5624 
 144   2.0000      -0.423339       -11.5196 
 145   2.0000      -0.419712       -11.4209 
 146   2.0000      -0.417187       -11.3522 
 147   2.0000      -0.410874       -11.1804 
 148   2.0000      -0.409570       -11.1450 
 149   2.0000      -0.407563       -11.0904 
 150   2.0000      -0.405932       -11.0460 
 151   2.0000      -0.401019       -10.9123 
 152   2.0000      -0.399442       -10.8694 
 153   2.0000      -0.397118       -10.8061 
 154   2.0000      -0.395706       -10.7677 
 155   2.0000      -0.395558       -10.7637 
 156   2.0000      -0.393869       -10.7177 
 157   2.0000      -0.392184       -10.6719 
 158   2.0000      -0.391189       -10.6448 
 159   2.0000      -0.390440       -10.6244 
 160   2.0000      -0.387415       -10.5421 
 161   2.0000      -0.386490       -10.5169 
 162   2.0000      -0.384825       -10.4716 
 163   2.0000      -0.380869       -10.3640 
 164   2.0000      -0.378392       -10.2966 
 165   2.0000      -0.377075       -10.2607 
 166   2.0000      -0.375431       -10.2160 
 167   2.0000      -0.374211       -10.1828 
 168   2.0000      -0.369852       -10.0642 
 169   2.0000      -0.366137        -9.9631 
 170   2.0000      -0.364538        -9.9196 
 171   2.0000      -0.363195        -9.8830 
 172   2.0000      -0.361626        -9.8403 
 173   2.0000      -0.358101        -9.7444 
 174   2.0000      -0.357018        -9.7149 
 175   2.0000      -0.356273        -9.6947 
 176   2.0000      -0.354840        -9.6557 
 177   2.0000      -0.353957        -9.6317 
 178   2.0000      -0.353043        -9.6068 
 179   2.0000      -0.351228        -9.5574 
 180   2.0000      -0.349129        -9.5003 
 181   2.0000      -0.348189        -9.4747 
 182   2.0000      -0.348013        -9.4699 
 183   2.0000      -0.345249        -9.3947 
 184   2.0000      -0.342914        -9.3312 
 185   2.0000      -0.339903        -9.2492 
 186   2.0000      -0.338050        -9.1988 
 187   2.0000      -0.336568        -9.1585 
 188   2.0000      -0.335035        -9.1168 
 189   2.0000      -0.333742        -9.0816 
 190   2.0000      -0.331690        -9.0257 
 191   2.0000      -0.330046        -8.9810 
 192   2.0000      -0.329460        -8.9651 
 193   2.0000      -0.327878        -8.9220 
 194   2.0000      -0.326490        -8.8843 
 195   2.0000      -0.324873        -8.8402 
 196   2.0000      -0.322734        -8.7820 
 197   2.0000      -0.321406        -8.7459 
 198   2.0000      -0.319548        -8.6953 
 199   2.0000      -0.318977        -8.6798 
 200   2.0000      -0.317884        -8.6501 
 201   2.0000      -0.313115        -8.5203 
 202   2.0000      -0.311925        -8.4879 
 203   2.0000      -0.310505        -8.4493 
 204   2.0000      -0.307711        -8.3732 
 205   2.0000      -0.307607        -8.3704 
 206   2.0000      -0.303543        -8.2598 
 207   2.0000      -0.300983        -8.1902 
 208   2.0000      -0.300006        -8.1636 
 209   2.0000      -0.298901        -8.1335 
 210   2.0000      -0.298371        -8.1191 
 211   2.0000      -0.292694        -7.9646 
 212   2.0000      -0.291098        -7.9212 
 213   2.0000      -0.289392        -7.8747 
 214   2.0000      -0.285950        -7.7811 
 215   2.0000      -0.283511        -7.7147 
 216   2.0000      -0.280028        -7.6200 
 217   2.0000      -0.277950        -7.5634 
 218   2.0000      -0.277479        -7.5506 
 219   2.0000      -0.277273        -7.5450 
 220   2.0000      -0.275533        -7.4976 
 221   2.0000      -0.273607        -7.4452 
 222   2.0000      -0.273425        -7.4403 
 223   2.0000      -0.271337        -7.3835 
 224   2.0000      -0.269977        -7.3465 
 225   2.0000      -0.269486        -7.3331 
 226   2.0000      -0.265572        -7.2266 
 227   2.0000      -0.265281        -7.2187 
 228   2.0000      -0.250660        -6.8208 
 229   2.0000      -0.246820        -6.7163 
 230   2.0000      -0.245493        -6.6802 
 231   2.0000      -0.243844        -6.6353 
 232   2.0000      -0.241404        -6.5689 
 233   2.0000      -0.237258        -6.4561 
 234   2.0000      -0.224866        -6.1189 
 235   2.0000      -0.217957        -5.9309 
 236   2.0000      -0.217509        -5.9187 
 237   2.0000      -0.206616        -5.6223 
 238   2.0000      -0.201632        -5.4867 
 239   2.0000      -0.180756        -4.9186 
 240   2.0000      -0.173451        -4.7198 
 241   0.0000      -0.115614        -3.1460 
 242   0.0000      -0.089340        -2.4311 
 243   0.0000      -0.065425        -1.7803 
 244   0.0000      -0.039600        -1.0776 
 245   0.0000      -0.031429        -0.8552 
 246   0.0000      -0.025764        -0.7011 
 247   0.0000      -0.020463        -0.5568 
 248   0.0000      -0.011295        -0.3074 
 249   0.0000      -0.003386        -0.0921 
 250   0.0000      -0.000218        -0.0059 
 251   0.0000       0.022300         0.6068 
*Only the first 10 virtual orbitals were printed.

                    ********************************
                    * MULLIKEN POPULATION ANALYSIS *
                    ********************************

-----------------------
MULLIKEN ATOMIC CHARGES
-----------------------
   0 Mg:    0.749629
   1 C :   -0.277764
   2 C :   -0.548687
   3 C :   -0.487034
   4 C :   -0.478900
   5 N :   -0.398784
   6 C :    0.328301
   7 C :    0.055647
   8 C :    0.122317
   9 C :    0.194566
  10 C :   -0.415357
  11 C :   -0.292701
  12 C :   -0.154564
  13 C :    0.275398
  14 O :   -0.374557
  15 O :   -0.228409
  16 N :   -0.378858
  17 C :    0.356629
  18 C :   -0.029597
  19 C :    0.031883
  20 C :    0.346488
  21 C :   -0.419547
  22 C :   -0.243256
  23 C :   -0.298523
  24 N :   -0.378396
  25 C :    0.297699
  26 C :   -0.051515
  27 C :   -0.026562
  28 C :    0.352378
  29 C :   -0.406819
  30 C :   -0.208632
  31 C :   -0.369863
  32 N :   -0.413453
  33 C :    0.297048
  34 C :   -0.160006
  35 C :    0.063662
  36 C :    0.237600
  37 C :   -0.422744
  38 C :    0.033745
  39 O :   -0.321321
  40 C :    0.142291
  41 C :    0.243190
  42 O :   -0.367073
  43 O :   -0.236264
  44 C :   -0.245823
  45 C :   -0.043950
  46 C :   -0.197777
  47 C :    0.037443
  48 C :   -0.374166
  49 C :   -0.130967
  50 C :   -0.254450
  51 C :   -0.156476
  52 C :    0.067216
  53 C :   -0.415098
  54 C :   -0.164258
  55 C :   -0.226085
  56 C :   -0.163723
  57 C :    0.073143
  58 C :   -0.415929
  59 C :   -0.164479
  60 C :   -0.221013
  61 C :   -0.182155
  62 C :    0.054018
  63 C :   -0.396787
  64 C :   -0.362017
  65 H :    0.126204
  66 H :    0.139443
  67 H :    0.142690
  68 H :    0.090617
  69 H :    0.072261
  70 H :    0.127899
  71 H :    0.128766
  72 H :    0.128697
  73 H :    0.120501
  74 H :    0.109559
  75 H :    0.126320
  76 H :    0.126690
  77 H :    0.140158
  78 H :    0.151522
  79 H :    0.147031
  80 H :    0.129090
  81 H :    0.144073
  82 H :    0.154764
  83 H :    0.138219
  84 H :    0.136688
  85 H :    0.138915
  86 H :    0.109016
  87 H :    0.111129
  88 H :    0.122390
  89 H :    0.121627
  90 H :    0.123325
  91 H :    0.144472
  92 H :    0.145843
  93 H :    0.145406
  94 H :    0.096692
  95 H :    0.145208
  96 H :    0.147755
  97 H :    0.154076
  98 H :    0.125161
  99 H :    0.116210
 100 H :    0.112770
 101 H :    0.129022
 102 H :    0.143133
 103 H :    0.131140
 104 H :    0.099477
 105 H :    0.097896
 106 H :    0.099153
 107 H :    0.096614
 108 H :    0.083062
 109 H :    0.081729
 110 H :    0.039536
 111 H :    0.125826
 112 H :    0.126848
 113 H :    0.105062
 114 H :    0.083596
 115 H :    0.078045
 116 H :    0.103093
 117 H :    0.075533
 118 H :    0.083026
 119 H :    0.077173
 120 H :    0.038164
 121 H :    0.104372
 122 H :    0.125830
 123 H :    0.126508
 124 H :    0.081590
 125 H :    0.079299
 126 H :    0.088452
 127 H :    0.090193
 128 H :    0.081335
 129 H :    0.084298
 130 H :    0.051027
 131 H :    0.106085
 132 H :    0.117538
 133 H :    0.127769
 134 H :    0.116426
 135 H :    0.119112
 136 H :    0.105899
Sum of atomic charges:   -0.0000000

--------------------------------
MULLIKEN REDUCED ORBITAL CHARGES
--------------------------------
  0 Mgs       :     4.523025  s :     4.523025
      pz      :     2.139260  p :     6.453566
      px      :     2.157747
      py      :     2.156560
      dz2     :     0.049049  d :     0.273780
      dxz     :     0.025244
      dyz     :     0.078395
      dx2y2   :     0.055837
      dxy     :     0.065256

  1 C s       :     3.393360  s :     3.393360
      pz      :     0.827344  p :     2.753448
      px      :     0.912936
      py      :     1.013168
      dz2     :     0.024754  d :     0.120464
      dxz     :     0.025689
      dyz     :     0.017435
      dx2y2   :     0.028474
      dxy     :     0.024112
      f0      :     0.001097  f :     0.010492
      f+1     :     0.001475
      f-1     :     0.001480
      f+2     :     0.002373
      f-2     :     0.001432
      f+3     :     0.001335
      f-3     :     0.001300

  2 C s       :     3.392539  s :     3.392539
      pz      :     1.037266  p :     3.071257
      px      :     0.985501
      py      :     1.048490
      dz2     :     0.010674  d :     0.077132
      dxz     :     0.021540
      dyz     :     0.009699
      dx2y2   :     0.021748
      dxy     :     0.013471
      f0      :     0.000785  f :     0.007760
      f+1     :     0.000503
      f-1     :     0.001371
      f+2     :     0.000790
      f-2     :     0.001714
      f+3     :     0.001490
      f-3     :     0.001107

  3 C s       :     3.369662  s :     3.369662
      pz      :     1.007564  p :     3.030327
      px      :     0.985681
      py      :     1.037082
      dz2     :     0.020958  d :     0.079419
      dxz     :     0.018189
      dyz     :     0.007137
      dx2y2   :     0.013808
      dxy     :     0.019326
      f0      :     0.000824  f :     0.007626
      f+1     :     0.001519
      f-1     :     0.000634
      f+2     :     0.001424
      f-2     :     0.001281
      f+3     :     0.001101
      f-3     :     0.000844

  4 C s       :     3.413062  s :     3.413062
      pz      :     0.987775  p :     2.974015
      px      :     1.038003
      py      :     0.948237
      dz2     :     0.010480  d :     0.084195
      dxz     :     0.023358
      dyz     :     0.009909
      dx2y2   :     0.024537
      dxy     :     0.015910
      f0      :     0.000854  f :     0.007628
      f+1     :     0.000399
      f-1     :     0.001292
      f+2     :     0.000792
      f-2     :     0.001705
      f+3     :     0.001602
      f-3     :     0.000985

  5 N s       :     3.686715  s :     3.686715
      pz      :     1.160262  p :     3.648175
      px      :     1.315993
      py      :     1.171920
      dz2     :     0.014753  d :     0.060189
      dxz     :     0.010658
      dyz     :     0.011333
      dx2y2   :     0.011473
      dxy     :     0.011972
      f0      :     0.000432  f :     0.003705
      f+1     :     0.000444
      f-1     :     0.000650
      f+2     :     0.000668
      f-2     :     0.000717
      f+3     :     0.000367
      f-3     :     0.000427

  6 C s       :     3.139951  s :     3.139951
      pz      :     0.778719  p :     2.354844
      px      :     0.775882
      py      :     0.800243
      dz2     :     0.039498  d :     0.162672
      dxz     :     0.027420
      dyz     :     0.019382
      dx2y2   :     0.038056
      dxy     :     0.038317
      f0      :     0.001285  f :     0.014233
      f+1     :     0.001587
      f-1     :     0.002287
      f+2     :     0.003088
      f-2     :     0.001936
      f+3     :     0.001939
      f-3     :     0.002110

  7 C s       :     3.057190  s :     3.057190
      pz      :     0.918959  p :     2.752224
      px      :     0.909853
      py      :     0.923413
      dz2     :     0.031528  d :     0.126211
      dxz     :     0.026191
      dyz     :     0.021152
      dx2y2   :     0.028829
      dxy     :     0.018511
      f0      :     0.001322  f :     0.008727
      f+1     :     0.001526
      f-1     :     0.000846
      f+2     :     0.001517
      f-2     :     0.001352
      f+3     :     0.000883
      f-3     :     0.001281

  8 C s       :     2.989098  s :     2.989098
      pz      :     0.936472  p :     2.747044
      px      :     0.913969
      py      :     0.896604
      dz2     :     0.036159  d :     0.132685
      dxz     :     0.023102
      dyz     :     0.026616
      dx2y2   :     0.018118
      dxy     :     0.028690
      f0      :     0.001670  f :     0.008856
      f+1     :     0.001190
      f-1     :     0.001533
      f+2     :     0.000880
      f-2     :     0.001549
      f+3     :     0.000754
      f-3     :     0.001281

  9 C s       :     3.138036  s :     3.138036
      pz      :     0.800733  p :     2.490411
      px      :     0.827791
      py      :     0.861887
      dz2     :     0.041798  d :     0.162589
      dxz     :     0.026369
      dyz     :     0.025182
      dx2y2   :     0.033967
      dxy     :     0.035273
      f0      :     0.001857  f :     0.014399
      f+1     :     0.001680
      f-1     :     0.002424
      f+2     :     0.002080
      f-2     :     0.002902
      f+3     :     0.002145
      f-3     :     0.001310

 10 C s       :     3.258274  s :     3.258274
      pz      :     0.984814  p :     3.087245
      px      :     1.071821
      py      :     1.030609
      dz2     :     0.019387  d :     0.065198
      dxz     :     0.008252
      dyz     :     0.014546
      dx2y2   :     0.003845
      dxy     :     0.019168
      f0      :     0.000711  f :     0.004641
      f+1     :     0.000594
      f-1     :     0.001310
      f+2     :     0.000502
      f-2     :     0.000493
      f+3     :     0.000186
      f-3     :     0.000845

 11 C s       :     3.208049  s :     3.208049
      pz      :     1.011309  p :     2.976349
      px      :     0.935912
      py      :     1.029128
      dz2     :     0.023361  d :     0.101619
      dxz     :     0.021028
      dyz     :     0.013344
      dx2y2   :     0.027217
      dxy     :     0.016669
      f0      :     0.000602  f :     0.006684
      f+1     :     0.001348
      f-1     :     0.000751
      f+2     :     0.001101
      f-2     :     0.000861
      f+3     :     0.000916
      f-3     :     0.001106

 12 C s       :     3.080695  s :     3.080695
      pz      :     1.000385  p :     2.979689
      px      :     0.944567
      py      :     1.034738
      dz2     :     0.016566  d :     0.087791
      dxz     :     0.024117
      dyz     :     0.009845
      dx2y2   :     0.022467
      dxy     :     0.014796
      f0      :     0.000669  f :     0.006389
      f+1     :     0.001366
      f-1     :     0.000727
      f+2     :     0.001009
      f-2     :     0.000731
      f+3     :     0.000855
      f-3     :     0.001032

 13 C s       :     3.124248  s :     3.124248
      pz      :     0.790691  p :     2.305583
      px      :     0.746613
      py      :     0.768278
      dz2     :     0.055618  d :     0.270346
      dxz     :     0.104179
      dyz     :     0.053063
      dx2y2   :     0.019898
      dxy     :     0.037589
      f0      :     0.004491  f :     0.024424
      f+1     :     0.008213
      f-1     :     0.003480
      f+2     :     0.002327
      f-2     :     0.002111
      f+3     :     0.001496
      f-3     :     0.002306

 14 O s       :     3.812555  s :     3.812555
      pz      :     1.348768  p :     4.531209
      px      :     1.760807
      py      :     1.421634
      dz2     :     0.009640  d :     0.028867
      dxz     :     0.008067
      dyz     :     0.009742
      dx2y2   :     0.000791
      dxy     :     0.000626
      f0      :     0.000581  f :     0.001927
      f+1     :     0.000566
      f-1     :     0.000579
      f+2     :     0.000095
      f-2     :     0.000091
      f+3     :     0.000009
      f-3     :     0.000007

 15 O s       :     3.774173  s :     3.774173
      pz      :     1.549749  p :     4.414377
      px      :     1.182232
      py      :     1.682396
      dz2     :     0.006240  d :     0.037857
      dxz     :     0.014242
      dyz     :     0.003970
      dx2y2   :     0.006993
      dxy     :     0.006413
      f0      :     0.000132  f :     0.002002
      f+1     :     0.000373
      f-1     :     0.000034
      f+2     :     0.000483
      f-2     :     0.000229
      f+3     :     0.000393
      f-3     :     0.000358

 16 N s       :     3.658490  s :     3.658490
      pz      :     1.289026  p :     3.658050
      px      :     1.124515
      py      :     1.244509
      dz2     :     0.009247  d :     0.058589
      dxz     :     0.011209
      dyz     :     0.010176
      dx2y2   :     0.014846
      dxy     :     0.013111
      f0      :     0.000391  f :     0.003729
      f+1     :     0.000657
      f-1     :     0.000283
      f+2     :     0.000418
      f-2     :     0.000743
      f+3     :     0.000536
      f-3     :     0.000702

 17 C s       :     3.078603  s :     3.078603
      pz      :     0.820327  p :     2.374227
      px      :     0.737209
      py      :     0.816691
      dz2     :     0.036113  d :     0.175702
      dxz     :     0.029560
      dyz     :     0.031135
      dx2y2   :     0.041073
      dxy     :     0.037821
      f0      :     0.001412  f :     0.014839
      f+1     :     0.002465
      f-1     :     0.001291
      f+2     :     0.001539
      f-2     :     0.003332
      f+3     :     0.002249
      f-3     :     0.002551

 18 C s       :     3.247759  s :     3.247759
      pz      :     0.869779  p :     2.626486
      px      :     0.865491
      py      :     0.891217
      dz2     :     0.029381  d :     0.144994
      dxz     :     0.029564
      dyz     :     0.022121
      dx2y2   :     0.037465
      dxy     :     0.026463
      f0      :     0.001062  f :     0.010357
      f+1     :     0.001341
      f-1     :     0.001335
      f+2     :     0.001612
      f-2     :     0.002025
      f+3     :     0.002084
      f-3     :     0.000898

 19 C s       :     3.243564  s :     3.243564
      pz      :     0.913136  p :     2.572718
      px      :     0.884954
      py      :     0.774628
      dz2     :     0.026002  d :     0.141284
      dxz     :     0.027088
      dyz     :     0.021206
      dx2y2   :     0.031069
      dxy     :     0.035919
      f0      :     0.001082  f :     0.010552
      f+1     :     0.001132
      f-1     :     0.001553
      f+2     :     0.001612
      f-2     :     0.001696
      f+3     :     0.001993
      f-3     :     0.001483

 20 C s       :     3.087580  s :     3.087580
      pz      :     0.839000  p :     2.378284
      px      :     0.791921
      py      :     0.747364
      dz2     :     0.031021  d :     0.172985
      dxz     :     0.030129
      dyz     :     0.032163
      dx2y2   :     0.045944
      dxy     :     0.033728
      f0      :     0.001541  f :     0.014662
      f+1     :     0.002366
      f-1     :     0.001128
      f+2     :     0.001644
      f-2     :     0.002592
      f+3     :     0.002048
      f-3     :     0.003344

 21 C s       :     3.310195  s :     3.310195
      pz      :     0.987890  p :     3.041779
      px      :     0.994734
      py      :     1.059156
      dz2     :     0.022912  d :     0.063008
      dxz     :     0.006731
      dyz     :     0.008251
      dx2y2   :     0.016632
      dxy     :     0.008482
      f0      :     0.000580  f :     0.004565
      f+1     :     0.000811
      f-1     :     0.000804
      f+2     :     0.000620
      f-2     :     0.000508
      f+3     :     0.000267
      f-3     :     0.000975

 22 C s       :     3.295701  s :     3.295701
      pz      :     0.945404  p :     2.847125
      px      :     1.006819
      py      :     0.894902
      dz2     :     0.017784  d :     0.092984
      dxz     :     0.023464
      dyz     :     0.027836
      dx2y2   :     0.012679
      dxy     :     0.011220
      f0      :     0.001433  f :     0.007447
      f+1     :     0.001002
      f-1     :     0.001152
      f+2     :     0.000918
      f-2     :     0.001482
      f+3     :     0.000602
      f-3     :     0.000859

 23 C s       :     3.230737  s :     3.230737
      pz      :     0.971292  p :     3.005128
      px      :     1.011812
      py      :     1.022024
      dz2     :     0.013194  d :     0.057333
      dxz     :     0.017266
      dyz     :     0.015314
      dx2y2   :     0.005851
      dxy     :     0.005708
      f0      :     0.001214  f :     0.005325
      f+1     :     0.001033
      f-1     :     0.000673
      f+2     :     0.000562
      f-2     :     0.001098
      f+3     :     0.000603
      f-3     :     0.000142

 24 N s       :     3.658297  s :     3.658297
      pz      :     1.203417  p :     3.656722
      px      :     1.273463
      py      :     1.179842
      dz2     :     0.013501  d :     0.059656
      dxz     :     0.009988
      dyz     :     0.010815
      dx2y2   :     0.012328
      dxy     :     0.013024
      f0      :     0.000371  f :     0.003721
      f+1     :     0.000511
      f-1     :     0.000587
      f+2     :     0.000648
      f-2     :     0.000686
      f+3     :     0.000432
      f-3     :     0.000487

 25 C s       :     3.082113  s :     3.082113
      pz      :     0.834923  p :     2.432474
      px      :     0.801967
      py      :     0.795584
      dz2     :     0.037822  d :     0.172930
      dxz     :     0.028586
      dyz     :     0.025468
      dx2y2   :     0.039383
      dxy     :     0.041671
      f0      :     0.001113  f :     0.014784
      f+1     :     0.001897
      f-1     :     0.002467
      f+2     :     0.002984
      f-2     :     0.002010
      f+3     :     0.001862
      f-3     :     0.002451

 26 C s       :     3.261073  s :     3.261073
      pz      :     0.939253  p :     2.634438
      px      :     0.879575
      py      :     0.815610
      dz2     :     0.028902  d :     0.145655
      dxz     :     0.024398
      dyz     :     0.021995
      dx2y2   :     0.039613
      dxy     :     0.030746
      f0      :     0.000953  f :     0.010350
      f+1     :     0.001363
      f-1     :     0.001418
      f+2     :     0.001316
      f-2     :     0.001818
      f+3     :     0.001369
      f-3     :     0.002112

 27 C s       :     3.259647  s :     3.259647
      pz      :     0.892463  p :     2.615207
      px      :     0.791869
      py      :     0.930875
      dz2     :     0.029025  d :     0.141247
      dxz     :     0.028760
      dyz     :     0.018995
      dx2y2   :     0.031627
      dxy     :     0.032841
      f0      :     0.001278  f :     0.010460
      f+1     :     0.001498
      f-1     :     0.001168
      f+2     :     0.001147
      f-2     :     0.002320
      f+3     :     0.001561
      f-3     :     0.001489

 28 C s       :     3.096488  s :     3.096488
      pz      :     0.831308  p :     2.367611
      px      :     0.755951
      py      :     0.780351
      dz2     :     0.037437  d :     0.168872
      dxz     :     0.028343
      dyz     :     0.026823
      dx2y2   :     0.040208
      dxy     :     0.036061
      f0      :     0.001733  f :     0.014652
      f+1     :     0.001695
      f-1     :     0.002148
      f+2     :     0.002012
      f-2     :     0.003048
      f+3     :     0.002385
      f-3     :     0.001630

 29 C s       :     3.299462  s :     3.299462
      pz      :     1.059304  p :     3.040514
      px      :     1.018632
      py      :     0.962578
      dz2     :     0.014222  d :     0.062325
      dxz     :     0.008838
      dyz     :     0.009842
      dx2y2   :     0.019850
      dxy     :     0.009572
      f0      :     0.001186  f :     0.004517
      f+1     :     0.000266
      f-1     :     0.000346
      f+2     :     0.000497
      f-2     :     0.000485
      f+3     :     0.001063
      f-3     :     0.000673

 30 C s       :     3.231644  s :     3.231644
      pz      :     0.926856  p :     2.870357
      px      :     0.939371
      py      :     1.004130
      dz2     :     0.027530  d :     0.100162
      dxz     :     0.026409
      dyz     :     0.015922
      dx2y2   :     0.016102
      dxy     :     0.014198
      f0      :     0.001170  f :     0.006468
      f+1     :     0.001263
      f-1     :     0.000782
      f+2     :     0.000964
      f-2     :     0.001077
      f+3     :     0.000402
      f-3     :     0.000811

 31 C s       :     3.234118  s :     3.234118
      pz      :     0.964153  p :     3.067301
      px      :     1.059808
      py      :     1.043341
      dz2     :     0.012377  d :     0.063864
      dxz     :     0.024020
      dyz     :     0.008586
      dx2y2   :     0.013651
      dxy     :     0.005230
      f0      :     0.000984  f :     0.004579
      f+1     :     0.000602
      f-1     :     0.000730
      f+2     :     0.000901
      f-2     :     0.000563
      f+3     :     0.000275
      f-3     :     0.000524

 32 N s       :     3.705141  s :     3.705141
      pz      :     1.286050  p :     3.645993
      px      :     1.112132
      py      :     1.247812
      dz2     :     0.008718  d :     0.058588
      dxz     :     0.011891
      dyz     :     0.009891
      dx2y2   :     0.015311
      dxy     :     0.012777
      f0      :     0.000389  f :     0.003731
      f+1     :     0.000633
      f-1     :     0.000300
      f+2     :     0.000432
      f-2     :     0.000732
      f+3     :     0.000522
      f-3     :     0.000723

 33 C s       :     3.078081  s :     3.078081
      pz      :     0.853522  p :     2.444163
      px      :     0.774475
      py      :     0.816165
      dz2     :     0.031215  d :     0.166240
      dxz     :     0.028821
      dyz     :     0.028685
      dx2y2   :     0.038573
      dxy     :     0.038946
      f0      :     0.001338  f :     0.014468
      f+1     :     0.002282
      f-1     :     0.001292
      f+2     :     0.001541
      f-2     :     0.003193
      f+3     :     0.002521
      f-3     :     0.002300

 34 C s       :     3.412349  s :     3.412349
      pz      :     0.855920  p :     2.598619
      px      :     0.854008
      py      :     0.888690
      dz2     :     0.023643  d :     0.138843
      dxz     :     0.029719
      dyz     :     0.023827
      dx2y2   :     0.034383
      dxy     :     0.027271
      f0      :     0.000868  f :     0.010196
      f+1     :     0.001437
      f-1     :     0.001475
      f+2     :     0.001853
      f-2     :     0.001720
      f+3     :     0.001728
      f-3     :     0.001115

 35 C s       :     3.214047  s :     3.214047
      pz      :     0.936384  p :     2.578598
      px      :     0.802503
      py      :     0.839711
      dz2     :     0.024241  d :     0.132399
      dxz     :     0.025809
      dyz     :     0.017004
      dx2y2   :     0.028167
      dxy     :     0.037177
      f0      :     0.001149  f :     0.011295
      f+1     :     0.001414
      f-1     :     0.001236
      f+2     :     0.001366
      f-2     :     0.001872
      f+3     :     0.002142
      f-3     :     0.002116

 36 C s       :     3.237977  s :     3.237977
      pz      :     0.802982  p :     2.327339
      px      :     0.842547
      py      :     0.681811
      dz2     :     0.029470  d :     0.180736
      dxz     :     0.032151
      dyz     :     0.034965
      dx2y2   :     0.051601
      dxy     :     0.032549
      f0      :     0.001687  f :     0.016349
      f+1     :     0.002213
      f-1     :     0.001433
      f+2     :     0.001659
      f-2     :     0.002853
      f+3     :     0.002633
      f-3     :     0.003871

 37 C s       :     3.317623  s :     3.317623
      pz      :     0.982505  p :     3.040295
      px      :     1.005335
      py      :     1.052455
      dz2     :     0.012500  d :     0.060307
      dxz     :     0.010223
      dyz     :     0.015333
      dx2y2   :     0.012686
      dxy     :     0.009564
      f0      :     0.000538  f :     0.004519
      f+1     :     0.000467
      f-1     :     0.000466
      f+2     :     0.001226
      f-2     :     0.000953
      f+3     :     0.000597
      f-3     :     0.000271

 38 C s       :     3.176860  s :     3.176860
      pz      :     0.817739  p :     2.568004
      px      :     0.937605
      py      :     0.812659
      dz2     :     0.038039  d :     0.203622
      dxz     :     0.041032
      dyz     :     0.032119
      dx2y2   :     0.043047
      dxy     :     0.049386
      f0      :     0.001618  f :     0.017769
      f+1     :     0.001037
      f-1     :     0.003634
      f+2     :     0.002227
      f-2     :     0.003992
      f+3     :     0.002936
      f-3     :     0.002326

 39 O s       :     3.798352  s :     3.798352
      pz      :     1.405901  p :     4.492443
      px      :     1.687876
      py      :     1.398666
      dz2     :     0.006920  d :     0.028726
      dxz     :     0.003365
      dyz     :     0.007279
      dx2y2   :     0.005273
      dxy     :     0.005889
      f0      :     0.000154  f :     0.001800
      f+1     :     0.000035
      f-1     :     0.000513
      f+2     :     0.000303
      f-2     :     0.000314
      f+3     :     0.000262
      f-3     :     0.000219

 40 C s       :     2.908769  s :     2.908769
      pz      :     0.927602  p :     2.824354
      px      :     0.992213
      py      :     0.904538
      dz2     :     0.018710  d :     0.116883
      dxz     :     0.027106
      dyz     :     0.023462
      dx2y2   :     0.027289
      dxy     :     0.020316
      f0      :     0.000665  f :     0.007703
      f+1     :     0.000669
      f-1     :     0.001405
      f+2     :     0.001843
      f-2     :     0.001250
      f+3     :     0.001023
      f-3     :     0.000849

 41 C s       :     3.127786  s :     3.127786
      pz      :     0.763757  p :     2.333601
      px      :     0.751223
      py      :     0.818621
      dz2     :     0.057530  d :     0.270760
      dxz     :     0.053562
      dyz     :     0.080703
      dx2y2   :     0.048026
      dxy     :     0.030940
      f0      :     0.003961  f :     0.024663
      f+1     :     0.003719
      f-1     :     0.005465
      f+2     :     0.003354
      f-2     :     0.003714
      f+3     :     0.002344
      f-3     :     0.002107

 42 O s       :     3.810038  s :     3.810038
      pz      :     1.352140  p :     4.526481
      px      :     1.495830
      py      :     1.678512
      dz2     :     0.009667  d :     0.028635
      dxz     :     0.007975
      dyz     :     0.006875
      dx2y2   :     0.001951
      dxy     :     0.002167
      f0      :     0.000597  f :     0.001919
      f+1     :     0.000397
      f-1     :     0.000345
      f+2     :     0.000236
      f-2     :     0.000249
      f+3     :     0.000042
      f-3     :     0.000054

 43 O s       :     3.770725  s :     3.770725
      pz      :     1.598355  p :     4.424011
      px      :     1.538482
      py      :     1.287173
      dz2     :     0.005862  d :     0.039453
      dxz     :     0.006225
      dyz     :     0.011065
      dx2y2   :     0.007999
      dxy     :     0.008302
      f0      :     0.000177  f :     0.002075
      f+1     :     0.000165
      f-1     :     0.000254
      f+2     :     0.000330
      f-2     :     0.000374
      f+3     :     0.000391
      f-3     :     0.000383

 44 C s       :     3.249309  s :     3.249309
      pz      :     1.010140  p :     2.892852
      px      :     1.099856
      py      :     0.782856
      dz2     :     0.020562  d :     0.095028
      dxz     :     0.015214
      dyz     :     0.019611
      dx2y2   :     0.013916
      dxy     :     0.025725
      f0      :     0.000721  f :     0.008634
      f+1     :     0.000722
      f-1     :     0.001805
      f+2     :     0.001141
      f-2     :     0.001487
      f+3     :     0.001019
      f-3     :     0.001739

 45 C s       :     3.158049  s :     3.158049
      pz      :     0.880700  p :     2.744002
      px      :     0.790720
      py      :     1.072582
      dz2     :     0.020449  d :     0.131530
      dxz     :     0.028180
      dyz     :     0.033472
      dx2y2   :     0.024957
      dxy     :     0.024472
      f0      :     0.000977  f :     0.010370
      f+1     :     0.002546
      f-1     :     0.000272
      f+2     :     0.002434
      f-2     :     0.001884
      f+3     :     0.000849
      f-3     :     0.001408

 46 C s       :     3.174497  s :     3.174497
      pz      :     0.993874  p :     2.920269
      px      :     0.965982
      py      :     0.960414
      dz2     :     0.006532  d :     0.095352
      dxz     :     0.016899
      dyz     :     0.023915
      dx2y2   :     0.030120
      dxy     :     0.017887
      f0      :     0.000882  f :     0.007659
      f+1     :     0.001017
      f-1     :     0.000255
      f+2     :     0.001025
      f-2     :     0.001717
      f+3     :     0.001108
      f-3     :     0.001655

 47 C s       :     3.167804  s :     3.167804
      pz      :     0.874158  p :     2.641778
      px      :     0.902600
      py      :     0.865020
      dz2     :     0.016849  d :     0.143109
      dxz     :     0.025129
      dyz     :     0.030294
      dx2y2   :     0.043354
      dxy     :     0.027483
      f0      :     0.000943  f :     0.009866
      f+1     :     0.001023
      f-1     :     0.001061
      f+2     :     0.001105
      f-2     :     0.002107
      f+3     :     0.001666
      f-3     :     0.001959

 48 C s       :     3.238035  s :     3.238035
      pz      :     1.034250  p :     3.071466
      px      :     1.073655
      py      :     0.963560
      dz2     :     0.007757  d :     0.060261
      dxz     :     0.013296
      dyz     :     0.015332
      dx2y2   :     0.012325
      dxy     :     0.011552
      f0      :     0.000240  f :     0.004404
      f+1     :     0.000431
      f-1     :     0.000722
      f+2     :     0.001367
      f-2     :     0.000513
      f+3     :     0.000732
      f-3     :     0.000398

 49 C s       :     3.128762  s :     3.128762
      pz      :     0.965559  p :     2.899071
      px      :     0.904897
      py      :     1.028615
      dz2     :     0.013800  d :     0.096693
      dxz     :     0.018036
      dyz     :     0.026530
      dx2y2   :     0.021638
      dxy     :     0.016689
      f0      :     0.000421  f :     0.006441
      f+1     :     0.001425
      f-1     :     0.000184
      f+2     :     0.001867
      f-2     :     0.001010
      f+3     :     0.000586
      f-3     :     0.000950

 50 C s       :     3.200207  s :     3.200207
      pz      :     0.978414  p :     2.947751
      px      :     0.948058
      py      :     1.021279
      dz2     :     0.013836  d :     0.099881
      dxz     :     0.019500
      dyz     :     0.029953
      dx2y2   :     0.020213
      dxy     :     0.016380
      f0      :     0.000422  f :     0.006610
      f+1     :     0.001532
      f-1     :     0.000198
      f+2     :     0.001854
      f-2     :     0.001140
      f+3     :     0.000589
      f-3     :     0.000876

 51 C s       :     3.134555  s :     3.134555
      pz      :     0.983810  p :     2.917787
      px      :     0.927410
      py      :     1.006567
      dz2     :     0.013295  d :     0.097557
      dxz     :     0.017772
      dyz     :     0.029067
      dx2y2   :     0.021222
      dxy     :     0.016200
      f0      :     0.000437  f :     0.006578
      f+1     :     0.001434
      f-1     :     0.000232
      f+2     :     0.001847
      f-2     :     0.001055
      f+3     :     0.000614
      f-3     :     0.000959

 52 C s       :     3.068768  s :     3.068768
      pz      :     0.901611  p :     2.714474
      px      :     0.890004
      py      :     0.922859
      dz2     :     0.022321  d :     0.140868
      dxz     :     0.031864
      dyz     :     0.035567
      dx2y2   :     0.029521
      dxy     :     0.021595
      f0      :     0.000670  f :     0.008673
      f+1     :     0.001552
      f-1     :     0.000887
      f+2     :     0.001977
      f-2     :     0.001642
      f+3     :     0.000880
      f-3     :     0.001066

 53 C s       :     3.253659  s :     3.253659
      pz      :     1.028892  p :     3.094774
      px      :     1.069749
      py      :     0.996132
      dz2     :     0.009336  d :     0.062158
      dxz     :     0.018192
      dyz     :     0.010588
      dx2y2   :     0.017787
      dxy     :     0.006256
      f0      :     0.000449  f :     0.004507
      f+1     :     0.000238
      f-1     :     0.000732
      f+2     :     0.001759
      f-2     :     0.000515
      f+3     :     0.000455
      f-3     :     0.000358

 54 C s       :     3.142992  s :     3.142992
      pz      :     0.983369  p :     2.916602
      px      :     0.929290
      py      :     1.003943
      dz2     :     0.012392  d :     0.098084
      dxz     :     0.019580
      dyz     :     0.028852
      dx2y2   :     0.020023
      dxy     :     0.017238
      f0      :     0.000556  f :     0.006580
      f+1     :     0.001343
      f-1     :     0.000242
      f+2     :     0.001763
      f-2     :     0.001093
      f+3     :     0.000668
      f-3     :     0.000916

 55 C s       :     3.157316  s :     3.157316
      pz      :     0.983553  p :     2.963178
      px      :     0.967503
      py      :     1.012122
      dz2     :     0.013361  d :     0.098971
      dxz     :     0.020136
      dyz     :     0.029505
      dx2y2   :     0.018651
      dxy     :     0.017319
      f0      :     0.000591  f :     0.006621
      f+1     :     0.001345
      f-1     :     0.000271
      f+2     :     0.001775
      f-2     :     0.001152
      f+3     :     0.000667
      f-3     :     0.000820

 56 C s       :     3.141636  s :     3.141636
      pz      :     0.983352  p :     2.917462
      px      :     0.935265
      py      :     0.998845
      dz2     :     0.012817  d :     0.098044
      dxz     :     0.019345
      dyz     :     0.029770
      dx2y2   :     0.020073
      dxy     :     0.016040
      f0      :     0.000650  f :     0.006581
      f+1     :     0.001247
      f-1     :     0.000289
      f+2     :     0.001651
      f-2     :     0.001179
      f+3     :     0.000761
      f-3     :     0.000803

 57 C s       :     3.064561  s :     3.064561
      pz      :     0.901666  p :     2.712748
      px      :     0.890753
      py      :     0.920329
      dz2     :     0.022041  d :     0.140875
      dxz     :     0.029959
      dyz     :     0.036314
      dx2y2   :     0.029597
      dxy     :     0.022964
      f0      :     0.000821  f :     0.008672
      f+1     :     0.001305
      f-1     :     0.001054
      f+2     :     0.001946
      f-2     :     0.001411
      f+3     :     0.000949
      f-3     :     0.001188

 58 C s       :     3.254342  s :     3.254342
      pz      :     1.037280  p :     3.094828
      px      :     1.055325
      py      :     1.002223
      dz2     :     0.009882  d :     0.062252
      dxz     :     0.013765
      dyz     :     0.013207
      dx2y2   :     0.017647
      dxy     :     0.007752
      f0      :     0.000328  f :     0.004508
      f+1     :     0.000509
      f-1     :     0.000704
      f+2     :     0.001259
      f-2     :     0.000696
      f+3     :     0.000392
      f-3     :     0.000620

 59 C s       :     3.143714  s :     3.143714
      pz      :     0.981425  p :     2.916247
      px      :     0.941964
      py      :     0.992858
      dz2     :     0.011995  d :     0.097939
      dxz     :     0.021796
      dyz     :     0.027624
      dx2y2   :     0.017626
      dxy     :     0.018899
      f0      :     0.000846  f :     0.006579
      f+1     :     0.001007
      f-1     :     0.000451
      f+2     :     0.001308
      f-2     :     0.001327
      f+3     :     0.000929
      f-3     :     0.000711

 60 C s       :     3.162109  s :     3.162109
      pz      :     0.978183  p :     2.953155
      px      :     0.965958
      py      :     1.009013
      dz2     :     0.013681  d :     0.099120
      dxz     :     0.022365
      dyz     :     0.027498
      dx2y2   :     0.017110
      dxy     :     0.018466
      f0      :     0.000902  f :     0.006630
      f+1     :     0.000934
      f-1     :     0.000583
      f+2     :     0.001327
      f-2     :     0.001295
      f+3     :     0.000923
      f-3     :     0.000666

 61 C s       :     3.159670  s :     3.159670
      pz      :     0.975057  p :     2.918626
      px      :     0.943734
      py      :     0.999835
      dz2     :     0.013574  d :     0.097316
      dxz     :     0.020974
      dyz     :     0.027064
      dx2y2   :     0.015811
      dxy     :     0.019894
      f0      :     0.000911  f :     0.006542
      f+1     :     0.000867
      f-1     :     0.000625
      f+2     :     0.001409
      f-2     :     0.001090
      f+3     :     0.000898
      f-3     :     0.000741

 62 C s       :     3.075915  s :     3.075915
      pz      :     0.891609  p :     2.717373
      px      :     0.909398
      py      :     0.916366
      dz2     :     0.027727  d :     0.143964
      dxz     :     0.029697
      dyz     :     0.032718
      dx2y2   :     0.023834
      dxy     :     0.029988
      f0      :     0.001323  f :     0.008730
      f+1     :     0.000949
      f-1     :     0.001291
      f+2     :     0.001415
      f-2     :     0.001623
      f+3     :     0.001243
      f-3     :     0.000886

 63 C s       :     3.248648  s :     3.248648
      pz      :     1.025956  p :     3.080929
      px      :     1.060566
      py      :     0.994407
      dz2     :     0.016669  d :     0.062657
      dxz     :     0.010561
      dyz     :     0.008585
      dx2y2   :     0.010908
      dxy     :     0.015934
      f0      :     0.000482  f :     0.004553
      f+1     :     0.000573
      f-1     :     0.000867
      f+2     :     0.000616
      f-2     :     0.000861
      f+3     :     0.000685
      f-3     :     0.000468

 64 C s       :     3.234000  s :     3.234000
      pz      :     0.981808  p :     3.059993
      px      :     1.026418
      py      :     1.051766
      dz2     :     0.011448  d :     0.063412
      dxz     :     0.008580
      dyz     :     0.023823
      dx2y2   :     0.012536
      dxy     :     0.007025
      f0      :     0.000869  f :     0.004612
      f+1     :     0.000638
      f-1     :     0.000507
      f+2     :     0.001076
      f-2     :     0.000745
      f+3     :     0.000420
      f-3     :     0.000356

 65 H s       :     0.852468  s :     0.852468
      pz      :     0.008460  p :     0.021328
      px      :     0.008375
      py      :     0.004493

 66 H s       :     0.839048  s :     0.839048
      pz      :     0.005466  p :     0.021509
      px      :     0.006070
      py      :     0.009972

 67 H s       :     0.836393  s :     0.836393
      pz      :     0.007646  p :     0.020917
      px      :     0.008916
      py      :     0.004355

 68 H s       :     0.888038  s :     0.888038
      pz      :     0.004893  p :     0.021345
      px      :     0.004542
      py      :     0.011910

 69 H s       :     0.906635  s :     0.906635
      pz      :     0.004525  p :     0.021104
      px      :     0.010280
      py      :     0.006299

 70 H s       :     0.852479  s :     0.852479
      pz      :     0.004558  p :     0.019622
      px      :     0.007632
      py      :     0.007432

 71 H s       :     0.851381  s :     0.851381
      pz      :     0.008965  p :     0.019852
      px      :     0.004529
      py      :     0.006358

 72 H s       :     0.851696  s :     0.851696
      pz      :     0.004408  p :     0.019606
      px      :     0.008954
      py      :     0.006244

 73 H s       :     0.858493  s :     0.858493
      pz      :     0.010624  p :     0.021006
      px      :     0.004763
      py      :     0.005619

 74 H s       :     0.870573  s :     0.870573
      pz      :     0.004874  p :     0.019868
      px      :     0.004266
      py      :     0.010729

 75 H s       :     0.853008  s :     0.853008
      pz      :     0.010022  p :     0.020672
      px      :     0.004995
      py      :     0.005655

 76 H s       :     0.852901  s :     0.852901
      pz      :     0.004997  p :     0.020409
      px      :     0.004353
      py      :     0.011059

 77 H s       :     0.839631  s :     0.839631
      pz      :     0.004839  p :     0.020211
      px      :     0.010097
      py      :     0.005275

 78 H s       :     0.828414  s :     0.828414
      pz      :     0.004558  p :     0.020064
      px      :     0.004548
      py      :     0.010957

 79 H s       :     0.833231  s :     0.833231
      pz      :     0.009962  p :     0.019737
      px      :     0.004604
      py      :     0.005171

 80 H s       :     0.850653  s :     0.850653
      pz      :     0.006853  p :     0.020258
      px      :     0.007347
      py      :     0.006058

 81 H s       :     0.835792  s :     0.835792
      pz      :     0.004434  p :     0.020135
      px      :     0.005974
      py      :     0.009727

 82 H s       :     0.824869  s :     0.824869
      pz      :     0.007458  p :     0.020367
      px      :     0.007266
      py      :     0.005643

 83 H s       :     0.842102  s :     0.842102
      pz      :     0.004975  p :     0.019679
      px      :     0.005469
      py      :     0.009235

 84 H s       :     0.842845  s :     0.842845
      pz      :     0.005795  p :     0.020467
      px      :     0.010052
      py      :     0.004619

 85 H s       :     0.841440  s :     0.841440
      pz      :     0.010354  p :     0.019645
      px      :     0.004726
      py      :     0.004564

 86 H s       :     0.870647  s :     0.870647
      pz      :     0.004566  p :     0.020336
      px      :     0.005266
      py      :     0.010504

 87 H s       :     0.868393  s :     0.868393
      pz      :     0.005771  p :     0.020478
      px      :     0.009097
      py      :     0.005610

 88 H s       :     0.857990  s :     0.857990
      pz      :     0.007039  p :     0.019620
      px      :     0.008104
      py      :     0.004477

 89 H s       :     0.858813  s :     0.858813
      pz      :     0.004430  p :     0.019560
      px      :     0.004792
      py      :     0.010338

 90 H s       :     0.857033  s :     0.857033
      pz      :     0.006085  p :     0.019642
      px      :     0.008153
      py      :     0.005404

 91 H s       :     0.835816  s :     0.835816
      pz      :     0.007862  p :     0.019712
      px      :     0.004868
      py      :     0.006983

 92 H s       :     0.834206  s :     0.834206
      pz      :     0.005939  p :     0.019951
      px      :     0.005125
      py      :     0.008887

 93 H s       :     0.834847  s :     0.834847
      pz      :     0.005353  p :     0.019747
      px      :     0.009406
      py      :     0.004988

 94 H s       :     0.881602  s :     0.881602
      pz      :     0.007452  p :     0.021705
      px      :     0.009833
      py      :     0.004421

 95 H s       :     0.835996  s :     0.835996
      pz      :     0.010148  p :     0.018796
      px      :     0.005376
      py      :     0.003271

 96 H s       :     0.833470  s :     0.833470
      pz      :     0.004214  p :     0.018775
      px      :     0.009084
      py      :     0.005478

 97 H s       :     0.826899  s :     0.826899
      pz      :     0.006038  p :     0.019025
      px      :     0.007511
      py      :     0.005476

 98 H s       :     0.855365  s :     0.855365
      pz      :     0.007444  p :     0.019473
      px      :     0.003765
      py      :     0.008264

 99 H s       :     0.863130  s :     0.863130
      pz      :     0.006723  p :     0.020660
      px      :     0.004037
      py      :     0.009900

100 H s       :     0.866856  s :     0.866856
      pz      :     0.006822  p :     0.020375
      px      :     0.004471
      py      :     0.009081

101 H s       :     0.851156  s :     0.851156
      pz      :     0.006559  p :     0.019822
      px      :     0.004809
      py      :     0.008454

102 H s       :     0.836776  s :     0.836776
      pz      :     0.008244  p :     0.020092
      px      :     0.007163
      py      :     0.004684

103 H s       :     0.848103  s :     0.848103
      pz      :     0.005586  p :     0.020757
      px      :     0.010122
      py      :     0.005049

104 H s       :     0.880654  s :     0.880654
      pz      :     0.007653  p :     0.019869
      px      :     0.004483
      py      :     0.007734

105 H s       :     0.882015  s :     0.882015
      pz      :     0.006771  p :     0.020088
      px      :     0.004422
      py      :     0.008895

106 H s       :     0.880466  s :     0.880466
      pz      :     0.007874  p :     0.020381
      px      :     0.004558
      py      :     0.007949

107 H s       :     0.883243  s :     0.883243
      pz      :     0.006787  p :     0.020143
      px      :     0.004535
      py      :     0.008821

108 H s       :     0.896839  s :     0.896839
      pz      :     0.008051  p :     0.020100
      px      :     0.004558
      py      :     0.007490

109 H s       :     0.898547  s :     0.898547
      pz      :     0.006504  p :     0.019724
      px      :     0.004409
      py      :     0.008810

110 H s       :     0.940125  s :     0.940125
      pz      :     0.006608  p :     0.020339
      px      :     0.004458
      py      :     0.009273

111 H s       :     0.853862  s :     0.853862
      pz      :     0.007579  p :     0.020311
      px      :     0.008071
      py      :     0.004661

112 H s       :     0.852873  s :     0.852873
      pz      :     0.006511  p :     0.020279
      px      :     0.009169
      py      :     0.004600

113 H s       :     0.875410  s :     0.875410
      pz      :     0.005736  p :     0.019528
      px      :     0.004506
      py      :     0.009287

114 H s       :     0.896339  s :     0.896339
      pz      :     0.007674  p :     0.020065
      px      :     0.004796
      py      :     0.007594

115 H s       :     0.902231  s :     0.902231
      pz      :     0.006751  p :     0.019723
      px      :     0.004418
      py      :     0.008554

116 H s       :     0.875970  s :     0.875970
      pz      :     0.007430  p :     0.020937
      px      :     0.005253
      py      :     0.008253

117 H s       :     0.904685  s :     0.904685
      pz      :     0.007099  p :     0.019782
      px      :     0.004401
      py      :     0.008282

118 H s       :     0.896906  s :     0.896906
      pz      :     0.007423  p :     0.020068
      px      :     0.005116
      py      :     0.007530

119 H s       :     0.903086  s :     0.903086
      pz      :     0.006893  p :     0.019741
      px      :     0.004439
      py      :     0.008409

120 H s       :     0.941498  s :     0.941498
      pz      :     0.006954  p :     0.020338
      px      :     0.004521
      py      :     0.008862

121 H s       :     0.876097  s :     0.876097
      pz      :     0.006032  p :     0.019531
      px      :     0.004608
      py      :     0.008891

122 H s       :     0.853869  s :     0.853869
      pz      :     0.008467  p :     0.020302
      px      :     0.006781
      py      :     0.005053

123 H s       :     0.853200  s :     0.853200
      pz      :     0.005679  p :     0.020292
      px      :     0.009742
      py      :     0.004871

124 H s       :     0.898326  s :     0.898326
      pz      :     0.007003  p :     0.020084
      px      :     0.005944
      py      :     0.007138

125 H s       :     0.900995  s :     0.900995
      pz      :     0.007090  p :     0.019706
      px      :     0.004495
      py      :     0.008120

126 H s       :     0.891245  s :     0.891245
      pz      :     0.006569  p :     0.020303
      px      :     0.006221
      py      :     0.007513

127 H s       :     0.889574  s :     0.889574
      pz      :     0.007584  p :     0.020233
      px      :     0.004625
      py      :     0.008024

128 H s       :     0.899019  s :     0.899019
      pz      :     0.006110  p :     0.019646
      px      :     0.005918
      py      :     0.007618

129 H s       :     0.895732  s :     0.895732
      pz      :     0.007795  p :     0.019970
      px      :     0.004534
      py      :     0.007641

130 H s       :     0.928745  s :     0.928745
      pz      :     0.005968  p :     0.020228
      px      :     0.005886
      py      :     0.008375

131 H s       :     0.874465  s :     0.874465
      pz      :     0.005232  p :     0.019449
      px      :     0.005843
      py      :     0.008374

132 H s       :     0.862782  s :     0.862782
      pz      :     0.004919  p :     0.019680
      px      :     0.009465
      py      :     0.005295

133 H s       :     0.852151  s :     0.852151
      pz      :     0.009474  p :     0.020080
      px      :     0.005848
      py      :     0.004758

134 H s       :     0.863963  s :     0.863963
      pz      :     0.007111  p :     0.019611
      px      :     0.004577
      py      :     0.007923

135 H s       :     0.861228  s :     0.861228
      pz      :     0.004644  p :     0.019660
      px      :     0.010004
      py      :     0.005012

136 H s       :     0.874663  s :     0.874663
      pz      :     0.006266  p :     0.019437
      px      :     0.005359
      py      :     0.007812



                     *******************************
                     * LOEWDIN POPULATION ANALYSIS *
                     *******************************

----------------------
LOEWDIN ATOMIC CHARGES
----------------------
   0 Mg:    0.335548
   1 C :   -0.069854
   2 C :   -0.108509
   3 C :   -0.075999
   4 C :   -0.068770
   5 N :    0.216330
   6 C :   -0.130142
   7 C :   -0.160972
   8 C :   -0.185480
   9 C :   -0.167714
  10 C :   -0.261658
  11 C :   -0.210379
  12 C :   -0.213703
  13 C :   -0.488383
  14 O :    0.086988
  15 O :    0.262586
  16 N :    0.179392
  17 C :   -0.171895
  18 C :   -0.100246
  19 C :   -0.092666
  20 C :   -0.164938
  21 C :   -0.252067
  22 C :   -0.164603
  23 C :   -0.193450
  24 N :    0.182821
  25 C :   -0.178304
  26 C :   -0.119729
  27 C :   -0.096758
  28 C :   -0.170664
  29 C :   -0.253277
  30 C :   -0.240776
  31 C :   -0.293539
  32 N :    0.192598
  33 C :   -0.161230
  34 C :   -0.081965
  35 C :   -0.078396
  36 C :   -0.149943
  37 C :   -0.246525
  38 C :   -0.260206
  39 O :    0.099525
  40 C :   -0.110608
  41 C :   -0.479441
  42 O :    0.098972
  43 O :    0.259294
  44 C :   -0.298511
  45 C :   -0.258479
  46 C :   -0.171711
  47 C :   -0.187039
  48 C :   -0.252548
  49 C :   -0.215922
  50 C :   -0.249662
  51 C :   -0.239747
  52 C :   -0.280867
  53 C :   -0.282692
  54 C :   -0.241151
  55 C :   -0.259897
  56 C :   -0.241365
  57 C :   -0.281610
  58 C :   -0.283314
  59 C :   -0.241552
  60 C :   -0.260443
  61 C :   -0.244134
  62 C :   -0.308949
  63 C :   -0.286887
  64 C :   -0.287804
  65 H :    0.162971
  66 H :    0.162406
  67 H :    0.164257
  68 H :    0.168091
  69 H :    0.162820
  70 H :    0.123496
  71 H :    0.122247
  72 H :    0.126936
  73 H :    0.143984
  74 H :    0.147363
  75 H :    0.151317
  76 H :    0.161056
  77 H :    0.129470
  78 H :    0.134425
  79 H :    0.134468
  80 H :    0.152456
  81 H :    0.124063
  82 H :    0.125023
  83 H :    0.132808
  84 H :    0.129181
  85 H :    0.131629
  86 H :    0.142177
  87 H :    0.142034
  88 H :    0.117650
  89 H :    0.118824
  90 H :    0.118166
  91 H :    0.136516
  92 H :    0.132981
  93 H :    0.137515
  94 H :    0.176701
  95 H :    0.113699
  96 H :    0.115139
  97 H :    0.117509
  98 H :    0.135774
  99 H :    0.131295
 100 H :    0.145747
 101 H :    0.131887
 102 H :    0.132285
 103 H :    0.124154
 104 H :    0.143630
 105 H :    0.142139
 106 H :    0.134214
 107 H :    0.135995
 108 H :    0.136981
 109 H :    0.135916
 110 H :    0.148134
 111 H :    0.117126
 112 H :    0.117411
 113 H :    0.120114
 114 H :    0.135855
 115 H :    0.135215
 116 H :    0.131982
 117 H :    0.133801
 118 H :    0.135680
 119 H :    0.135044
 120 H :    0.147537
 121 H :    0.119974
 122 H :    0.116885
 123 H :    0.117134
 124 H :    0.136117
 125 H :    0.134825
 126 H :    0.133176
 127 H :    0.133459
 128 H :    0.134633
 129 H :    0.136302
 130 H :    0.145946
 131 H :    0.119028
 132 H :    0.118266
 133 H :    0.116781
 134 H :    0.117456
 135 H :    0.117423
 136 H :    0.118321

-------------------------------
LOEWDIN REDUCED ORBITAL CHARGES
-------------------------------
  0 Mgs       :     4.245160  s :     4.245160
      pz      :     2.213603  p :     6.697887
      px      :     2.246344
      py      :     2.237939
      dz2     :     0.130385  d :     0.721406
      dxz     :     0.086827
      dyz     :     0.183541
      dx2y2   :     0.152166
      dxy     :     0.168487

  1 C s       :     2.685114  s :     2.685114
      pz      :     0.946663  p :     2.834111
      px      :     0.963925
      py      :     0.923524
      dz2     :     0.089995  d :     0.493747
      dxz     :     0.103446
      dyz     :     0.087826
      dx2y2   :     0.111322
      dxy     :     0.101158
      f0      :     0.005815  f :     0.056881
      f+1     :     0.007329
      f-1     :     0.007859
      f+2     :     0.012332
      f-2     :     0.006873
      f+3     :     0.008171
      f-3     :     0.008501

  2 C s       :     2.747001  s :     2.747001
      pz      :     0.973415  p :     2.955191
      px      :     0.983962
      py      :     0.997814
      dz2     :     0.048071  d :     0.365919
      dxz     :     0.078696
      dyz     :     0.063666
      dx2y2   :     0.091786
      dxy     :     0.083699
      f0      :     0.004594  f :     0.040398
      f+1     :     0.002822
      f-1     :     0.006393
      f+2     :     0.005160
      f-2     :     0.007076
      f+3     :     0.008345
      f-3     :     0.006008

  3 C s       :     2.748253  s :     2.748253
      pz      :     0.959426  p :     2.915980
      px      :     0.991690
      py      :     0.964864
      dz2     :     0.076259  d :     0.371502
      dxz     :     0.086504
      dyz     :     0.048914
      dx2y2   :     0.071078
      dxy     :     0.088747
      f0      :     0.004835  f :     0.040263
      f+1     :     0.006561
      f-1     :     0.004065
      f+2     :     0.007723
      f-2     :     0.005731
      f+3     :     0.006064
      f-3     :     0.005284

  4 C s       :     2.751585  s :     2.751585
      pz      :     0.940175  p :     2.902344
      px      :     0.979935
      py      :     0.982234
      dz2     :     0.044971  d :     0.374357
      dxz     :     0.081543
      dyz     :     0.062091
      dx2y2   :     0.100833
      dxy     :     0.084919
      f0      :     0.004900  f :     0.040484
      f+1     :     0.002515
      f-1     :     0.006108
      f+2     :     0.004975
      f-2     :     0.007080
      f+3     :     0.008861
      f-3     :     0.006045

  5 N s       :     2.983675  s :     2.983675
      pz      :     1.132576  p :     3.572668
      px      :     1.281798
      py      :     1.158293
      dz2     :     0.046343  d :     0.208769
      dxz     :     0.041257
      dyz     :     0.043614
      dx2y2   :     0.037294
      dxy     :     0.040261
      f0      :     0.002120  f :     0.018558
      f+1     :     0.002808
      f-1     :     0.002455
      f+2     :     0.003200
      f-2     :     0.002798
      f+3     :     0.002765
      f-3     :     0.002413

  6 C s       :     2.702975  s :     2.702975
      pz      :     0.905701  p :     2.733768
      px      :     0.938692
      py      :     0.889375
      dz2     :     0.125676  d :     0.617044
      dxz     :     0.112599
      dyz     :     0.105592
      dx2y2   :     0.134752
      dxy     :     0.138425
      f0      :     0.007226  f :     0.076355
      f+1     :     0.009357
      f-1     :     0.010922
      f+2     :     0.015744
      f-2     :     0.009114
      f+3     :     0.011521
      f-3     :     0.012471

  7 C s       :     2.716594  s :     2.716594
      pz      :     0.967068  p :     2.902233
      px      :     0.957984
      py      :     0.977180
      dz2     :     0.106872  d :     0.487627
      dxz     :     0.111194
      dyz     :     0.083303
      dx2y2   :     0.125425
      dxy     :     0.060833
      f0      :     0.009043  f :     0.054518
      f+1     :     0.009517
      f-1     :     0.005727
      f+2     :     0.006600
      f-2     :     0.009838
      f+3     :     0.005397
      f-3     :     0.008396

  8 C s       :     2.722296  s :     2.722296
      pz      :     0.975005  p :     2.917130
      px      :     0.971744
      py      :     0.970381
      dz2     :     0.127020  d :     0.491424
      dxz     :     0.069568
      dyz     :     0.113627
      dx2y2   :     0.068465
      dxy     :     0.112743
      f0      :     0.009519  f :     0.054631
      f+1     :     0.009406
      f-1     :     0.007239
      f+2     :     0.007301
      f-2     :     0.009129
      f+3     :     0.004368
      f-3     :     0.007670

  9 C s       :     2.711827  s :     2.711827
      pz      :     0.893366  p :     2.748748
      px      :     0.902407
      py      :     0.952976
      dz2     :     0.136642  d :     0.629708
      dxz     :     0.118768
      dyz     :     0.121438
      dx2y2   :     0.122925
      dxy     :     0.129935
      f0      :     0.009793  f :     0.077432
      f+1     :     0.009786
      f-1     :     0.012120
      f+2     :     0.012055
      f-2     :     0.013285
      f+3     :     0.012654
      f-3     :     0.007739

 10 C s       :     2.830440  s :     2.830440
      pz      :     1.022351  p :     3.141910
      px      :     1.068355
      py      :     1.051204
      dz2     :     0.076931  d :     0.263994
      dxz     :     0.028665
      dyz     :     0.069252
      dx2y2   :     0.016532
      dxy     :     0.072614
      f0      :     0.003728  f :     0.025314
      f+1     :     0.005105
      f-1     :     0.004820
      f+2     :     0.004596
      f-2     :     0.002575
      f+3     :     0.001060
      f-3     :     0.003430

 11 C s       :     2.770455  s :     2.770455
      pz      :     1.011079  p :     3.006966
      px      :     0.970146
      py      :     1.025741
      dz2     :     0.086040  d :     0.393903
      dxz     :     0.086952
      dyz     :     0.054269
      dx2y2   :     0.106647
      dxy     :     0.059995
      f0      :     0.004034  f :     0.039055
      f+1     :     0.007457
      f-1     :     0.004572
      f+2     :     0.004716
      f-2     :     0.006509
      f+3     :     0.005056
      f-3     :     0.006712

 12 C s       :     2.775490  s :     2.775490
      pz      :     1.013408  p :     3.032443
      px      :     0.993538
      py      :     1.025497
      dz2     :     0.069794  d :     0.367835
      dxz     :     0.104034
      dyz     :     0.041820
      dx2y2   :     0.096661
      dxy     :     0.055525
      f0      :     0.004005  f :     0.037935
      f+1     :     0.007844
      f-1     :     0.004269
      f+2     :     0.004952
      f-2     :     0.005791
      f+3     :     0.004845
      f-3     :     0.006231

 13 C s       :     2.756855  s :     2.756855
      pz      :     1.002053  p :     2.644413
      px      :     0.893928
      py      :     0.748432
      dz2     :     0.224159  d :     0.935784
      dxz     :     0.349200
      dyz     :     0.158932
      dx2y2   :     0.094514
      dxy     :     0.108980
      f0      :     0.028390  f :     0.151331
      f+1     :     0.050942
      f-1     :     0.020730
      f+2     :     0.015986
      f-2     :     0.012565
      f+3     :     0.010732
      f-3     :     0.011987

 14 O s       :     3.396691  s :     3.396691
      pz      :     1.498784  p :     4.442600
      px      :     1.605256
      py      :     1.338561
      dz2     :     0.030216  d :     0.067384
      dxz     :     0.019913
      dyz     :     0.014862
      dx2y2   :     0.001318
      dxy     :     0.001075
      f0      :     0.002418  f :     0.006337
      f+1     :     0.002006
      f-1     :     0.001350
      f+2     :     0.000265
      f-2     :     0.000274
      f+3     :     0.000013
      f-3     :     0.000010

 15 O s       :     3.269846  s :     3.269846
      pz      :     1.538592  p :     4.355793
      px      :     1.261566
      py      :     1.555635
      dz2     :     0.016542  d :     0.105354
      dxz     :     0.038072
      dyz     :     0.007587
      dx2y2   :     0.026058
      dxy     :     0.017095
      f0      :     0.000616  f :     0.006421
      f+1     :     0.001980
      f-1     :     0.000100
      f+2     :     0.001200
      f-2     :     0.000989
      f+3     :     0.000928
      f-3     :     0.000607

 16 N s       :     2.976495  s :     2.976495
      pz      :     1.249568  p :     3.621693
      px      :     1.135325
      py      :     1.236799
      dz2     :     0.028047  d :     0.203831
      dxz     :     0.044228
      dyz     :     0.030638
      dx2y2   :     0.051462
      dxy     :     0.049457
      f0      :     0.001743  f :     0.018588
      f+1     :     0.003037
      f-1     :     0.001263
      f+2     :     0.002812
      f-2     :     0.003575
      f+3     :     0.002546
      f-3     :     0.003613

 17 C s       :     2.695995  s :     2.695995
      pz      :     0.886197  p :     2.753634
      px      :     0.922279
      py      :     0.945158
      dz2     :     0.119560  d :     0.642637
      dxz     :     0.126924
      dyz     :     0.105645
      dx2y2   :     0.146464
      dxy     :     0.144044
      f0      :     0.008481  f :     0.079629
      f+1     :     0.012787
      f-1     :     0.007092
      f+2     :     0.009309
      f-2     :     0.015617
      f+3     :     0.012346
      f-3     :     0.013998

 18 C s       :     2.706846  s :     2.706846
      pz      :     0.915170  p :     2.823655
      px      :     0.971976
      py      :     0.936510
      dz2     :     0.087234  d :     0.511318
      dxz     :     0.105881
      dyz     :     0.090541
      dx2y2   :     0.124858
      dxy     :     0.102804
      f0      :     0.006814  f :     0.058426
      f+1     :     0.006536
      f-1     :     0.007997
      f+2     :     0.009714
      f-2     :     0.008864
      f+3     :     0.011967
      f-3     :     0.006534

 19 C s       :     2.696043  s :     2.696043
      pz      :     0.909108  p :     2.826823
      px      :     0.969353
      py      :     0.948363
      dz2     :     0.088491  d :     0.511198
      dxz     :     0.090447
      dyz     :     0.093001
      dx2y2   :     0.113022
      dxy     :     0.126236
      f0      :     0.006479  f :     0.058602
      f+1     :     0.006093
      f-1     :     0.009003
      f+2     :     0.009431
      f-2     :     0.006938
      f+3     :     0.011377
      f-3     :     0.009280

 20 C s       :     2.694357  s :     2.694357
      pz      :     0.910716  p :     2.761553
      px      :     0.954450
      py      :     0.896386
      dz2     :     0.105248  d :     0.631001
      dxz     :     0.118568
      dyz     :     0.107428
      dx2y2   :     0.153783
      dxy     :     0.145975
      f0      :     0.008967  f :     0.078026
      f+1     :     0.011844
      f-1     :     0.006414
      f+2     :     0.010305
      f-2     :     0.011061
      f+3     :     0.010805
      f-3     :     0.018631

 21 C s       :     2.813988  s :     2.813988
      pz      :     1.046164  p :     3.151880
      px      :     1.045298
      py      :     1.060418
      dz2     :     0.082381  d :     0.259979
      dxz     :     0.041358
      dyz     :     0.032446
      dx2y2   :     0.070141
      dxy     :     0.033653
      f0      :     0.002924  f :     0.026220
      f+1     :     0.004433
      f-1     :     0.004476
      f+2     :     0.003348
      f-2     :     0.004763
      f+3     :     0.001693
      f-3     :     0.004584

 22 C s       :     2.774057  s :     2.774057
      pz      :     1.057014  p :     2.949551
      px      :     0.922904
      py      :     0.969633
      dz2     :     0.084190  d :     0.398992
      dxz     :     0.089677
      dyz     :     0.118869
      dx2y2   :     0.052685
      dxy     :     0.053571
      f0      :     0.008028  f :     0.042003
      f+1     :     0.006463
      f-1     :     0.008901
      f+2     :     0.005496
      f-2     :     0.005187
      f+3     :     0.003522
      f-3     :     0.004405

 23 C s       :     2.855489  s :     2.855489
      pz      :     1.080707  p :     3.069535
      px      :     0.976987
      py      :     1.011840
      dz2     :     0.060955  d :     0.240744
      dxz     :     0.065018
      dyz     :     0.074645
      dx2y2   :     0.022357
      dxy     :     0.017769
      f0      :     0.006459  f :     0.027682
      f+1     :     0.005675
      f-1     :     0.005781
      f+2     :     0.003132
      f-2     :     0.003716
      f+3     :     0.002282
      f-3     :     0.000639

 24 N s       :     2.982598  s :     2.982598
      pz      :     1.152699  p :     3.611036
      px      :     1.282556
      py      :     1.175782
      dz2     :     0.042475  d :     0.204919
      dxz     :     0.036564
      dyz     :     0.040827
      dx2y2   :     0.040760
      dxy     :     0.044293
      f0      :     0.001976  f :     0.018626
      f+1     :     0.002738
      f-1     :     0.002055
      f+2     :     0.003082
      f-2     :     0.002682
      f+3     :     0.003220
      f-3     :     0.002872

 25 C s       :     2.695024  s :     2.695024
      pz      :     0.914761  p :     2.766739
      px      :     0.944889
      py      :     0.907089
      dz2     :     0.113031  d :     0.637030
      dxz     :     0.112549
      dyz     :     0.121239
      dx2y2   :     0.146071
      dxy     :     0.144140
      f0      :     0.006516  f :     0.079511
      f+1     :     0.010535
      f-1     :     0.011842
      f+2     :     0.016099
      f-2     :     0.008424
      f+3     :     0.011318
      f-3     :     0.014777

 26 C s       :     2.706261  s :     2.706261
      pz      :     0.929768  p :     2.837560
      px      :     0.946293
      py      :     0.961498
      dz2     :     0.089754  d :     0.516992
      dxz     :     0.089791
      dyz     :     0.091487
      dx2y2   :     0.127679
      dxy     :     0.118280
      f0      :     0.005901  f :     0.058917
      f+1     :     0.007257
      f-1     :     0.007193
      f+2     :     0.008706
      f-2     :     0.009144
      f+3     :     0.007871
      f-3     :     0.012845

 27 C s       :     2.704692  s :     2.704692
      pz      :     0.924506  p :     2.819346
      px      :     0.942325
      py      :     0.952516
      dz2     :     0.098812  d :     0.513854
      dxz     :     0.103491
      dyz     :     0.081162
      dx2y2   :     0.109698
      dxy     :     0.120691
      f0      :     0.007194  f :     0.058865
      f+1     :     0.007922
      f-1     :     0.006384
      f+2     :     0.006183
      f-2     :     0.012003
      f+3     :     0.009212
      f-3     :     0.009966

 28 C s       :     2.695160  s :     2.695160
      pz      :     0.897831  p :     2.771164
      px      :     0.919738
      py      :     0.953595
      dz2     :     0.118719  d :     0.626544
      dxz     :     0.120523
      dyz     :     0.113144
      dx2y2   :     0.139452
      dxy     :     0.134706
      f0      :     0.009974  f :     0.077797
      f+1     :     0.009465
      f-1     :     0.009469
      f+2     :     0.010832
      f-2     :     0.014264
      f+3     :     0.014111
      f-3     :     0.009681

 29 C s       :     2.813971  s :     2.813971
      pz      :     1.061266  p :     3.153506
      px      :     1.053123
      py      :     1.039117
      dz2     :     0.061071  d :     0.259716
      dxz     :     0.036960
      dyz     :     0.034997
      dx2y2   :     0.074553
      dxy     :     0.052135
      f0      :     0.004438  f :     0.026084
      f+1     :     0.001195
      f-1     :     0.002540
      f+2     :     0.004599
      f-2     :     0.004211
      f+3     :     0.005219
      f-3     :     0.003882

 30 C s       :     2.765932  s :     2.765932
      pz      :     1.010913  p :     3.040316
      px      :     1.007256
      py      :     1.022147
      dz2     :     0.098030  d :     0.394922
      dxz     :     0.103675
      dyz     :     0.062464
      dx2y2   :     0.072914
      dxy     :     0.057839
      f0      :     0.007596  f :     0.039605
      f+1     :     0.007089
      f-1     :     0.005247
      f+2     :     0.005023
      f-2     :     0.007155
      f+3     :     0.002935
      f-3     :     0.004560

 31 C s       :     2.836466  s :     2.836466
      pz      :     1.031259  p :     3.166970
      px      :     1.069858
      py      :     1.065854
      dz2     :     0.055590  d :     0.264771
      dxz     :     0.090666
      dyz     :     0.042225
      dx2y2   :     0.053979
      dxy     :     0.022311
      f0      :     0.006095  f :     0.025332
      f+1     :     0.002876
      f-1     :     0.004668
      f+2     :     0.003553
      f-2     :     0.003959
      f+3     :     0.001643
      f-3     :     0.002537

 32 N s       :     2.973252  s :     2.973252
      pz      :     1.231503  p :     3.609815
      px      :     1.120417
      py      :     1.257895
      dz2     :     0.027097  d :     0.205034
      dxz     :     0.045371
      dyz     :     0.029809
      dx2y2   :     0.052716
      dxy     :     0.050041
      f0      :     0.001735  f :     0.019301
      f+1     :     0.003061
      f-1     :     0.001303
      f+2     :     0.002524
      f-2     :     0.003812
      f+3     :     0.002892
      f-3     :     0.003974

 33 C s       :     2.698327  s :     2.698327
      pz      :     0.892374  p :     2.773149
      px      :     0.926213
      py      :     0.954563
      dz2     :     0.107547  d :     0.613593
      dxz     :     0.123073
      dyz     :     0.096152
      dx2y2   :     0.141625
      dxy     :     0.145196
      f0      :     0.007696  f :     0.076161
      f+1     :     0.011877
      f-1     :     0.006445
      f+2     :     0.009004
      f-2     :     0.014698
      f+3     :     0.013705
      f-3     :     0.012736

 34 C s       :     2.712880  s :     2.712880
      pz      :     0.900444  p :     2.795929
      px      :     0.964334
      py      :     0.931151
      dz2     :     0.083189  d :     0.514801
      dxz     :     0.108627
      dyz     :     0.092053
      dx2y2   :     0.127557
      dxy     :     0.103375
      f0      :     0.005794  f :     0.058355
      f+1     :     0.007160
      f-1     :     0.008059
      f+2     :     0.011493
      f-2     :     0.007154
      f+3     :     0.011020
      f-3     :     0.007675

 35 C s       :     2.686866  s :     2.686866
      pz      :     0.926734  p :     2.835363
      px      :     0.966448
      py      :     0.942182
      dz2     :     0.085987  d :     0.493142
      dxz     :     0.088474
      dyz     :     0.073485
      dx2y2   :     0.102158
      dxy     :     0.143038
      f0      :     0.006571  f :     0.063025
      f+1     :     0.007341
      f-1     :     0.007508
      f+2     :     0.008598
      f-2     :     0.008451
      f+3     :     0.011175
      f-3     :     0.013380

 36 C s       :     2.665587  s :     2.665587
      pz      :     0.885879  p :     2.716843
      px      :     0.931124
      py      :     0.899840
      dz2     :     0.109043  d :     0.680250
      dxz     :     0.120873
      dyz     :     0.116690
      dx2y2   :     0.175011
      dxy     :     0.158633
      f0      :     0.009727  f :     0.087264
      f+1     :     0.011747
      f-1     :     0.007672
      f+2     :     0.010540
      f-2     :     0.012595
      f+3     :     0.013479
      f-3     :     0.021503

 37 C s       :     2.815311  s :     2.815311
      pz      :     1.045620  p :     3.151242
      px      :     1.046048
      py      :     1.059574
      dz2     :     0.040528  d :     0.253956
      dxz     :     0.054041
      dyz     :     0.069258
      dx2y2   :     0.050123
      dxy     :     0.040006
      f0      :     0.004801  f :     0.026016
      f+1     :     0.003741
      f-1     :     0.002723
      f+2     :     0.004398
      f-2     :     0.003699
      f+3     :     0.004091
      f-3     :     0.002564

 38 C s       :     2.747394  s :     2.747394
      pz      :     0.825175  p :     2.646820
      px      :     0.909089
      py      :     0.912556
      dz2     :     0.120960  d :     0.762222
      dxz     :     0.142424
      dyz     :     0.149598
      dx2y2   :     0.163399
      dxy     :     0.185841
      f0      :     0.010791  f :     0.103770
      f+1     :     0.006291
      f-1     :     0.018829
      f+2     :     0.013668
      f-2     :     0.022203
      f+3     :     0.018498
      f-3     :     0.013491

 39 O s       :     3.398951  s :     3.398951
      pz      :     1.400747  p :     4.426937
      px      :     1.565178
      py      :     1.461012
      dz2     :     0.010861  d :     0.068446
      dxz     :     0.008048
      dyz     :     0.022352
      dx2y2   :     0.013530
      dxy     :     0.013656
      f0      :     0.000529  f :     0.006141
      f+1     :     0.000099
      f-1     :     0.001442
      f+2     :     0.001485
      f-2     :     0.001129
      f+3     :     0.000749
      f-3     :     0.000708

 40 C s       :     2.728215  s :     2.728215
      pz      :     0.969312  p :     2.896161
      px      :     0.971794
      py      :     0.955055
      dz2     :     0.058155  d :     0.438938
      dxz     :     0.106184
      dyz     :     0.102364
      dx2y2   :     0.103251
      dxy     :     0.068985
      f0      :     0.006061  f :     0.047293
      f+1     :     0.004431
      f-1     :     0.008790
      f+2     :     0.007478
      f-2     :     0.006475
      f+3     :     0.007227
      f-3     :     0.006832

 41 C s       :     2.750223  s :     2.750223
      pz      :     0.949118  p :     2.640557
      px      :     0.807036
      py      :     0.884403
      dz2     :     0.207044  d :     0.937111
      dxz     :     0.202895
      dyz     :     0.261392
      dx2y2   :     0.140879
      dxy     :     0.124901
      f0      :     0.023962  f :     0.151549
      f+1     :     0.024555
      f-1     :     0.033780
      f+2     :     0.019000
      f-2     :     0.021329
      f+3     :     0.015458
      f-3     :     0.013464

 42 O s       :     3.394684  s :     3.394684
      pz      :     1.462763  p :     4.432244
      px      :     1.431233
      py      :     1.538248
      dz2     :     0.023175  d :     0.067725
      dxz     :     0.020491
      dyz     :     0.015985
      dx2y2   :     0.004011
      dxy     :     0.004063
      f0      :     0.001564  f :     0.006375
      f+1     :     0.001871
      f-1     :     0.001166
      f+2     :     0.000822
      f-2     :     0.000753
      f+3     :     0.000106
      f-3     :     0.000095

 43 O s       :     3.264043  s :     3.264043
      pz      :     1.551895  p :     4.359785
      px      :     1.487664
      py      :     1.320226
      dz2     :     0.015982  d :     0.110111
      dxz     :     0.014414
      dyz     :     0.028007
      dx2y2   :     0.023132
      dxy     :     0.028575
      f0      :     0.000492  f :     0.006767
      f+1     :     0.000576
      f-1     :     0.001286
      f+2     :     0.001156
      f-2     :     0.001309
      f+3     :     0.001154
      f-3     :     0.000795

 44 C s       :     2.867445  s :     2.867445
      pz      :     1.050507  p :     3.015860
      px      :     1.103604
      py      :     0.861749
      dz2     :     0.071165  d :     0.362135
      dxz     :     0.050684
      dyz     :     0.089914
      dx2y2   :     0.056393
      dxy     :     0.093980
      f0      :     0.004640  f :     0.053071
      f+1     :     0.002549
      f-1     :     0.011456
      f+2     :     0.010819
      f-2     :     0.007442
      f+3     :     0.006257
      f-3     :     0.009909

 45 C s       :     2.798794  s :     2.798794
      pz      :     0.957939  p :     2.897800
      px      :     0.881774
      py      :     1.058088
      dz2     :     0.063758  d :     0.495783
      dxz     :     0.138763
      dyz     :     0.122586
      dx2y2   :     0.102224
      dxy     :     0.068453
      f0      :     0.008264  f :     0.066101
      f+1     :     0.019373
      f-1     :     0.001801
      f+2     :     0.010630
      f-2     :     0.010302
      f+3     :     0.005808
      f-3     :     0.009924

 46 C s       :     2.778520  s :     2.778520
      pz      :     0.956212  p :     2.971049
      px      :     1.000848
      py      :     1.013989
      dz2     :     0.032280  d :     0.381702
      dxz     :     0.072544
      dyz     :     0.076881
      dx2y2   :     0.116134
      dxy     :     0.083862
      f0      :     0.004381  f :     0.040440
      f+1     :     0.005141
      f-1     :     0.002281
      f+2     :     0.004449
      f-2     :     0.007624
      f+3     :     0.006960
      f-3     :     0.009603

 47 C s       :     2.737213  s :     2.737213
      pz      :     0.878213  p :     2.861157
      px      :     0.972855
      py      :     1.010089
      dz2     :     0.066283  d :     0.532724
      dxz     :     0.090206
      dyz     :     0.104154
      dx2y2   :     0.153603
      dxy     :     0.118478
      f0      :     0.005400  f :     0.055946
      f+1     :     0.005424
      f-1     :     0.006864
      f+2     :     0.005198
      f-2     :     0.010621
      f+3     :     0.010860
      f-3     :     0.011579

 48 C s       :     2.817708  s :     2.817708
      pz      :     1.058211  p :     3.151707
      px      :     1.061294
      py      :     1.032203
      dz2     :     0.027405  d :     0.257456
      dxz     :     0.056741
      dyz     :     0.069285
      dx2y2   :     0.064181
      dxy     :     0.039844
      f0      :     0.002917  f :     0.025677
      f+1     :     0.002397
      f-1     :     0.004974
      f+2     :     0.004035
      f-2     :     0.003181
      f+3     :     0.005238
      f-3     :     0.002934

 49 C s       :     2.769983  s :     2.769983
      pz      :     1.007763  p :     3.013128
      px      :     0.986748
      py      :     1.018617
      dz2     :     0.046593  d :     0.393959
      dxz     :     0.089204
      dyz     :     0.107228
      dx2y2   :     0.097013
      dxy     :     0.053921
      f0      :     0.004614  f :     0.038852
      f+1     :     0.009477
      f-1     :     0.001571
      f+2     :     0.005976
      f-2     :     0.005478
      f+3     :     0.004072
      f-3     :     0.007664

 50 C s       :     2.778384  s :     2.778384
      pz      :     1.022699  p :     3.032673
      px      :     0.986214
      py      :     1.023759
      dz2     :     0.049319  d :     0.399428
      dxz     :     0.091065
      dyz     :     0.111589
      dx2y2   :     0.093634
      dxy     :     0.053820
      f0      :     0.004868  f :     0.039178
      f+1     :     0.010048
      f-1     :     0.001629
      f+2     :     0.005810
      f-2     :     0.005943
      f+3     :     0.003847
      f-3     :     0.007033

 51 C s       :     2.776936  s :     2.776936
      pz      :     1.013384  p :     3.021631
      px      :     0.988666
      py      :     1.019581
      dz2     :     0.050367  d :     0.402404
      dxz     :     0.090171
      dyz     :     0.108947
      dx2y2   :     0.099323
      dxy     :     0.053596
      f0      :     0.004557  f :     0.038775
      f+1     :     0.009434
      f-1     :     0.001837
      f+2     :     0.005862
      f-2     :     0.005711
      f+3     :     0.003929
      f-3     :     0.007445

 52 C s       :     2.737044  s :     2.737044
      pz      :     0.995074  p :     2.966387
      px      :     0.978693
      py      :     0.992620
      dz2     :     0.076194  d :     0.524324
      dxz     :     0.122021
      dyz     :     0.131296
      dx2y2   :     0.122024
      dxy     :     0.072790
      f0      :     0.007025  f :     0.053112
      f+1     :     0.010190
      f-1     :     0.005518
      f+2     :     0.007230
      f-2     :     0.009123
      f+3     :     0.005949
      f-3     :     0.008076

 53 C s       :     2.828746  s :     2.828746
      pz      :     1.050771  p :     3.159621
      px      :     1.060235
      py      :     1.048615
      dz2     :     0.030832  d :     0.268780
      dxz     :     0.081147
      dyz     :     0.061007
      dx2y2   :     0.072711
      dxy     :     0.023082
      f0      :     0.004410  f :     0.025545
      f+1     :     0.001709
      f-1     :     0.004864
      f+2     :     0.004712
      f-2     :     0.002858
      f+3     :     0.004044
      f-3     :     0.002949

 54 C s       :     2.777044  s :     2.777044
      pz      :     1.009982  p :     3.021923
      px      :     0.993536
      py      :     1.018406
      dz2     :     0.049182  d :     0.403451
      dxz     :     0.092087
      dyz     :     0.109384
      dx2y2   :     0.095104
      dxy     :     0.057694
      f0      :     0.005157  f :     0.038733
      f+1     :     0.008793
      f-1     :     0.001842
      f+2     :     0.005933
      f-2     :     0.005683
      f+3     :     0.004454
      f-3     :     0.006871

 55 C s       :     2.776394  s :     2.776394
      pz      :     1.022409  p :     3.041427
      px      :     0.998276
      py      :     1.020741
      dz2     :     0.049990  d :     0.402480
      dxz     :     0.092920
      dyz     :     0.112641
      dx2y2   :     0.086863
      dxy     :     0.060066
      f0      :     0.005749  f :     0.039596
      f+1     :     0.008939
      f-1     :     0.001998
      f+2     :     0.006188
      f-2     :     0.005849
      f+3     :     0.004610
      f-3     :     0.006262

 56 C s       :     2.777049  s :     2.777049
      pz      :     1.014458  p :     3.022085
      px      :     0.989115
      py      :     1.018511
      dz2     :     0.049981  d :     0.403485
      dxz     :     0.093743
      dyz     :     0.109755
      dx2y2   :     0.087901
      dxy     :     0.062105
      f0      :     0.005628  f :     0.038746
      f+1     :     0.008106
      f-1     :     0.002119
      f+2     :     0.005838
      f-2     :     0.005944
      f+3     :     0.005178
      f-3     :     0.005933

 57 C s       :     2.737082  s :     2.737082
      pz      :     0.993318  p :     2.966914
      px      :     0.982269
      py      :     0.991327
      dz2     :     0.077740  d :     0.524500
      dxz     :     0.114546
      dyz     :     0.132780
      dx2y2   :     0.113364
      dxy     :     0.086070
      f0      :     0.007229  f :     0.053115
      f+1     :     0.008937
      f-1     :     0.006253
      f+2     :     0.009060
      f-2     :     0.006962
      f+3     :     0.006659
      f-3     :     0.008015

 58 C s       :     2.828736  s :     2.828736
      pz      :     1.053566  p :     3.159852
      px      :     1.056543
      py      :     1.049743
      dz2     :     0.035945  d :     0.269164
      dxz     :     0.062732
      dyz     :     0.067039
      dx2y2   :     0.069504
      dxy     :     0.033945
      f0      :     0.003253  f :     0.025561
      f+1     :     0.003240
      f-1     :     0.004297
      f+2     :     0.004221
      f-2     :     0.002926
      f+3     :     0.003128
      f-3     :     0.004495

 59 C s       :     2.777058  s :     2.777058
      pz      :     1.007863  p :     3.022342
      px      :     1.001181
      py      :     1.013298
      dz2     :     0.051104  d :     0.403409
      dxz     :     0.094557
      dyz     :     0.106634
      dx2y2   :     0.075109
      dxy     :     0.076006
      f0      :     0.006438  f :     0.038742
      f+1     :     0.006723
      f-1     :     0.002717
      f+2     :     0.005896
      f-2     :     0.005893
      f+3     :     0.006694
      f-3     :     0.004381

 60 C s       :     2.776687  s :     2.776687
      pz      :     1.020822  p :     3.041764
      px      :     1.004680
      py      :     1.016262
      dz2     :     0.055515  d :     0.402402
      dxz     :     0.093253
      dyz     :     0.106842
      dx2y2   :     0.068887
      dxy     :     0.077906
      f0      :     0.006897  f :     0.039590
      f+1     :     0.006605
      f-1     :     0.003336
      f+2     :     0.006526
      f-2     :     0.005495
      f+3     :     0.006784
      f-3     :     0.003945

 61 C s       :     2.777854  s :     2.777854
      pz      :     1.013904  p :     3.023919
      px      :     0.996784
      py      :     1.013230
      dz2     :     0.056963  d :     0.403627
      dxz     :     0.091052
      dyz     :     0.106468
      dx2y2   :     0.070811
      dxy     :     0.078332
      f0      :     0.006593  f :     0.038735
      f+1     :     0.006078
      f-1     :     0.003379
      f+2     :     0.006943
      f-2     :     0.004949
      f+3     :     0.006359
      f-3     :     0.004433

 62 C s       :     2.740013  s :     2.740013
      pz      :     0.999915  p :     2.983857
      px      :     0.989621
      py      :     0.994321
      dz2     :     0.095231  d :     0.531251
      dxz     :     0.114428
      dyz     :     0.121502
      dx2y2   :     0.094175
      dxy     :     0.105916
      f0      :     0.009332  f :     0.053828
      f+1     :     0.006786
      f-1     :     0.007345
      f+2     :     0.007186
      f-2     :     0.009315
      f+3     :     0.008263
      f-3     :     0.005602

 63 C s       :     2.831598  s :     2.831598
      pz      :     1.050270  p :     3.160340
      px      :     1.063263
      py      :     1.046807
      dz2     :     0.065634  d :     0.269409
      dxz     :     0.044767
      dyz     :     0.051162
      dx2y2   :     0.047334
      dxy     :     0.060513
      f0      :     0.003067  f :     0.025541
      f+1     :     0.003158
      f-1     :     0.004811
      f+2     :     0.002905
      f-2     :     0.004770
      f+3     :     0.003871
      f-3     :     0.002959

 64 C s       :     2.833207  s :     2.833207
      pz      :     1.041690  p :     3.158271
      px      :     1.051603
      py      :     1.064979
      dz2     :     0.052437  d :     0.270753
      dxz     :     0.043519
      dyz     :     0.092322
      dx2y2   :     0.052222
      dxy     :     0.030253
      f0      :     0.006217  f :     0.025572
      f+1     :     0.004067
      f-1     :     0.002633
      f+2     :     0.004046
      f-2     :     0.004015
      f+3     :     0.002487
      f-3     :     0.002107

 65 H s       :     0.776203  s :     0.776203
      pz      :     0.023993  p :     0.060825
      px      :     0.024103
      py      :     0.012729

 66 H s       :     0.776521  s :     0.776521
      pz      :     0.015564  p :     0.061073
      px      :     0.017235
      py      :     0.028275

 67 H s       :     0.775249  s :     0.775249
      pz      :     0.022067  p :     0.060494
      px      :     0.025693
      py      :     0.012734

 68 H s       :     0.773545  s :     0.773545
      pz      :     0.013503  p :     0.058364
      px      :     0.012583
      py      :     0.032277

 69 H s       :     0.779274  s :     0.779274
      pz      :     0.012349  p :     0.057906
      px      :     0.027955
      py      :     0.017602

 70 H s       :     0.815928  s :     0.815928
      pz      :     0.012791  p :     0.060575
      px      :     0.025215
      py      :     0.022570

 71 H s       :     0.816785  s :     0.816785
      pz      :     0.026524  p :     0.060969
      px      :     0.013335
      py      :     0.021109

 72 H s       :     0.812409  s :     0.812409
      pz      :     0.012655  p :     0.060655
      px      :     0.029603
      py      :     0.018396

 73 H s       :     0.795590  s :     0.795590
      pz      :     0.029508  p :     0.060425
      px      :     0.013274
      py      :     0.017644

 74 H s       :     0.794037  s :     0.794037
      pz      :     0.013414  p :     0.058600
      px      :     0.012178
      py      :     0.033008

 75 H s       :     0.788421  s :     0.788421
      pz      :     0.028609  p :     0.060263
      px      :     0.014044
      py      :     0.017610

 76 H s       :     0.779402  s :     0.779402
      pz      :     0.013690  p :     0.059542
      px      :     0.012456
      py      :     0.033396

 77 H s       :     0.809630  s :     0.809630
      pz      :     0.014603  p :     0.060900
      px      :     0.030166
      py      :     0.016131

 78 H s       :     0.804499  s :     0.804499
      pz      :     0.012889  p :     0.061076
      px      :     0.012743
      py      :     0.035445

 79 H s       :     0.805208  s :     0.805208
      pz      :     0.030384  p :     0.060325
      px      :     0.013800
      py      :     0.016140

 80 H s       :     0.788822  s :     0.788822
      pz      :     0.019772  p :     0.058722
      px      :     0.021383
      py      :     0.017566

 81 H s       :     0.813558  s :     0.813558
      pz      :     0.012944  p :     0.062378
      px      :     0.018675
      py      :     0.030759

 82 H s       :     0.811700  s :     0.811700
      pz      :     0.022459  p :     0.063277
      px      :     0.022218
      py      :     0.018600

 83 H s       :     0.806938  s :     0.806938
      pz      :     0.015033  p :     0.060254
      px      :     0.017735
      py      :     0.027486

 84 H s       :     0.809893  s :     0.809893
      pz      :     0.017962  p :     0.060926
      px      :     0.030120
      py      :     0.012843

 85 H s       :     0.808002  s :     0.808002
      pz      :     0.034161  p :     0.060369
      px      :     0.013517
      py      :     0.012691

 86 H s       :     0.799352  s :     0.799352
      pz      :     0.013084  p :     0.058471
      px      :     0.013773
      py      :     0.031614

 87 H s       :     0.799459  s :     0.799459
      pz      :     0.016647  p :     0.058507
      px      :     0.024463
      py      :     0.017397

 88 H s       :     0.821852  s :     0.821852
      pz      :     0.020037  p :     0.060498
      px      :     0.027126
      py      :     0.013334

 89 H s       :     0.820606  s :     0.820606
      pz      :     0.013021  p :     0.060570
      px      :     0.014302
      py      :     0.033247

 90 H s       :     0.821067  s :     0.821067
      pz      :     0.017136  p :     0.060767
      px      :     0.026361
      py      :     0.017270

 91 H s       :     0.803020  s :     0.803020
      pz      :     0.023243  p :     0.060464
      px      :     0.013695
      py      :     0.023526

 92 H s       :     0.806134  s :     0.806134
      pz      :     0.016811  p :     0.060885
      px      :     0.016288
      py      :     0.027786

 93 H s       :     0.802036  s :     0.802036
      pz      :     0.017259  p :     0.060449
      px      :     0.028688
      py      :     0.014502

 94 H s       :     0.763001  s :     0.763001
      pz      :     0.021121  p :     0.060298
      px      :     0.027106
      py      :     0.012071

 95 H s       :     0.824131  s :     0.824131
      pz      :     0.035126  p :     0.062170
      px      :     0.016930
      py      :     0.010114

 96 H s       :     0.822672  s :     0.822672
      pz      :     0.012652  p :     0.062189
      px      :     0.032398
      py      :     0.017139

 97 H s       :     0.821219  s :     0.821219
      pz      :     0.020560  p :     0.061272
      px      :     0.024419
      py      :     0.016292

 98 H s       :     0.804880  s :     0.804880
      pz      :     0.021475  p :     0.059345
      px      :     0.010286
      py      :     0.027585

 99 H s       :     0.807154  s :     0.807154
      pz      :     0.018872  p :     0.061550
      px      :     0.010737
      py      :     0.031941

100 H s       :     0.794440  s :     0.794440
      pz      :     0.019937  p :     0.059812
      px      :     0.013085
      py      :     0.026791

101 H s       :     0.807905  s :     0.807905
      pz      :     0.021732  p :     0.060208
      px      :     0.014449
      py      :     0.024027

102 H s       :     0.806683  s :     0.806683
      pz      :     0.025439  p :     0.061032
      px      :     0.022674
      py      :     0.012919

103 H s       :     0.813858  s :     0.813858
      pz      :     0.016105  p :     0.061988
      px      :     0.032522
      py      :     0.013361

104 H s       :     0.798552  s :     0.798552
      pz      :     0.020870  p :     0.057818
      px      :     0.012461
      py      :     0.024488

105 H s       :     0.800096  s :     0.800096
      pz      :     0.018091  p :     0.057765
      px      :     0.012013
      py      :     0.027660

106 H s       :     0.806671  s :     0.806671
      pz      :     0.021595  p :     0.059115
      px      :     0.012811
      py      :     0.024710

107 H s       :     0.805301  s :     0.805301
      pz      :     0.018457  p :     0.058704
      px      :     0.012812
      py      :     0.027435

108 H s       :     0.805027  s :     0.805027
      pz      :     0.022003  p :     0.057992
      px      :     0.012335
      py      :     0.023653

109 H s       :     0.806141  s :     0.806141
      pz      :     0.017821  p :     0.057943
      px      :     0.012638
      py      :     0.027484

110 H s       :     0.795856  s :     0.795856
      pz      :     0.018477  p :     0.056011
      px      :     0.012427
      py      :     0.025107

111 H s       :     0.821425  s :     0.821425
      pz      :     0.022148  p :     0.061449
      px      :     0.026010
      py      :     0.013291

112 H s       :     0.821102  s :     0.821102
      pz      :     0.018685  p :     0.061487
      px      :     0.029433
      py      :     0.013370

113 H s       :     0.819828  s :     0.819828
      pz      :     0.018887  p :     0.060058
      px      :     0.013278
      py      :     0.027893

114 H s       :     0.806211  s :     0.806211
      pz      :     0.020865  p :     0.057933
      px      :     0.013157
      py      :     0.023911

115 H s       :     0.806896  s :     0.806896
      pz      :     0.018578  p :     0.057889
      px      :     0.012689
      py      :     0.026622

116 H s       :     0.808266  s :     0.808266
      pz      :     0.019942  p :     0.059752
      px      :     0.014633
      py      :     0.025177

117 H s       :     0.808424  s :     0.808424
      pz      :     0.019438  p :     0.057775
      px      :     0.012574
      py      :     0.025762

118 H s       :     0.806402  s :     0.806402
      pz      :     0.020225  p :     0.057918
      px      :     0.014044
      py      :     0.023650

119 H s       :     0.807066  s :     0.807066
      pz      :     0.018961  p :     0.057890
      px      :     0.012701
      py      :     0.026228

120 H s       :     0.796445  s :     0.796445
      pz      :     0.019352  p :     0.056018
      px      :     0.012661
      py      :     0.024005

121 H s       :     0.820001  s :     0.820001
      pz      :     0.019935  p :     0.060024
      px      :     0.013435
      py      :     0.026655

122 H s       :     0.821652  s :     0.821652
      pz      :     0.025423  p :     0.061463
      px      :     0.021694
      py      :     0.014347

123 H s       :     0.821395  s :     0.821395
      pz      :     0.016156  p :     0.061471
      px      :     0.030612
      py      :     0.014703

124 H s       :     0.805951  s :     0.805951
      pz      :     0.018951  p :     0.057933
      px      :     0.016758
      py      :     0.022224

125 H s       :     0.807311  s :     0.807311
      pz      :     0.019603  p :     0.057864
      px      :     0.013125
      py      :     0.025137

126 H s       :     0.808106  s :     0.808106
      pz      :     0.017693  p :     0.058718
      px      :     0.018088
      py      :     0.022937

127 H s       :     0.807938  s :     0.807938
      pz      :     0.020898  p :     0.058603
      px      :     0.013337
      py      :     0.024368

128 H s       :     0.807569  s :     0.807569
      pz      :     0.016767  p :     0.057798
      px      :     0.017333
      py      :     0.023698

129 H s       :     0.805784  s :     0.805784
      pz      :     0.021469  p :     0.057913
      px      :     0.012701
      py      :     0.023743

130 H s       :     0.797984  s :     0.797984
      pz      :     0.016700  p :     0.056070
      px      :     0.016536
      py      :     0.022833

131 H s       :     0.820908  s :     0.820908
      pz      :     0.016804  p :     0.060064
      px      :     0.018199
      py      :     0.025061

132 H s       :     0.821384  s :     0.821384
      pz      :     0.013811  p :     0.060350
      px      :     0.031615
      py      :     0.014924

133 H s       :     0.821949  s :     0.821949
      pz      :     0.029139  p :     0.061271
      px      :     0.017851
      py      :     0.014281

134 H s       :     0.822290  s :     0.822290
      pz      :     0.020662  p :     0.060254
      px      :     0.013056
      py      :     0.026537

135 H s       :     0.822232  s :     0.822232
      pz      :     0.013928  p :     0.060345
      px      :     0.031522
      py      :     0.014895

136 H s       :     0.821545  s :     0.821545
      pz      :     0.017983  p :     0.060134
      px      :     0.017134
      py      :     0.025017



                      *****************************
                      * MAYER POPULATION ANALYSIS *
                      *****************************

  NA   - Mulliken gross atomic population
  ZA   - Total nuclear charge
  QA   - Mulliken gross atomic charge
  VA   - Mayer's total valence
  BVA  - Mayer's bonded valence
  FA   - Mayer's free valence

  ATOM       NA         ZA         QA         VA         BVA        FA
  0 Mg    11.2504    12.0000     0.7496     2.0151     2.0151    -0.0000
  1 C      6.2778     6.0000    -0.2778     4.0168     4.0168     0.0000
  2 C      6.5487     6.0000    -0.5487     4.0597     4.0597    -0.0000
  3 C      6.4870     6.0000    -0.4870     4.0810     4.0810     0.0000
  4 C      6.4789     6.0000    -0.4789     4.0259     4.0259    -0.0000
  5 N      7.3988     7.0000    -0.3988     2.9910     2.9910     0.0000
  6 C      5.6717     6.0000     0.3283     3.5615     3.5615     0.0000
  7 C      5.9444     6.0000     0.0556     4.0395     4.0395     0.0000
  8 C      5.8777     6.0000     0.1223     3.9306     3.9306     0.0000
  9 C      5.8054     6.0000     0.1946     4.0106     4.0106     0.0000
 10 C      6.4154     6.0000    -0.4154     3.9422     3.9422    -0.0000
 11 C      6.2927     6.0000    -0.2927     4.0745     4.0745    -0.0000
 12 C      6.1546     6.0000    -0.1546     3.9433     3.9433    -0.0000
 13 C      5.7246     6.0000     0.2754     4.3107     4.3107    -0.0000
 14 O      8.3746     8.0000    -0.3746     2.1278     2.1278    -0.0000
 15 O      8.2284     8.0000    -0.2284     2.1802     2.1802    -0.0000
 16 N      7.3789     7.0000    -0.3789     3.0607     3.0607     0.0000
 17 C      5.6434     6.0000     0.3566     3.6248     3.6248    -0.0000
 18 C      6.0296     6.0000    -0.0296     3.7570     3.7570    -0.0000
 19 C      5.9681     6.0000     0.0319     3.7735     3.7735    -0.0000
 20 C      5.6535     6.0000     0.3465     3.5910     3.5910     0.0000
 21 C      6.4195     6.0000    -0.4195     3.8858     3.8858     0.0000
 22 C      6.2433     6.0000    -0.2433     3.9727     3.9727    -0.0000
 23 C      6.2985     6.0000    -0.2985     3.9089     3.9089    -0.0000
 24 N      7.3784     7.0000    -0.3784     3.0276     3.0276    -0.0000
 25 C      5.7023     6.0000     0.2977     3.7728     3.7728     0.0000
 26 C      6.0515     6.0000    -0.0515     3.8077     3.8077     0.0000
 27 C      6.0266     6.0000    -0.0266     3.8428     3.8428    -0.0000
 28 C      5.6476     6.0000     0.3524     3.5386     3.5386    -0.0000
 29 C      6.4068     6.0000    -0.4068     3.8860     3.8860     0.0000
 30 C      6.2086     6.0000    -0.2086     3.9304     3.9304    -0.0000
 31 C      6.3699     6.0000    -0.3699     3.9123     3.9123    -0.0000
 32 N      7.4135     7.0000    -0.4135     3.0175     3.0175     0.0000
 33 C      5.7030     6.0000     0.2970     3.7876     3.7876     0.0000
 34 C      6.1600     6.0000    -0.1600     3.9328     3.9328     0.0000
 35 C      5.9363     6.0000     0.0637     3.2933     3.2933    -0.0000
 36 C      5.7624     6.0000     0.2376     3.6737     3.6737     0.0000
 37 C      6.4227     6.0000    -0.4227     3.8745     3.8745    -0.0000
 38 C      5.9663     6.0000     0.0337     4.4552     4.4552    -0.0000
 39 O      8.3213     8.0000    -0.3213     2.1975     2.1975     0.0000
 40 C      5.8577     6.0000     0.1423     3.4895     3.4895     0.0000
 41 C      5.7568     6.0000     0.2432     4.3372     4.3372     0.0000
 42 O      8.3671     8.0000    -0.3671     2.1428     2.1428     0.0000
 43 O      8.2363     8.0000    -0.2363     2.1901     2.1901    -0.0000
 44 C      6.2458     6.0000    -0.2458     3.8862     3.8862    -0.0000
 45 C      6.0440     6.0000    -0.0440     3.8958     3.8958     0.0000
 46 C      6.1978     6.0000    -0.1978     3.9940     3.9940    -0.0000
 47 C      5.9626     6.0000     0.0374     3.9375     3.9375    -0.0000
 48 C      6.3742     6.0000    -0.3742     3.9081     3.9081    -0.0000
 49 C      6.1310     6.0000    -0.1310     3.9143     3.9143    -0.0000
 50 C      6.2545     6.0000    -0.2545     4.0453     4.0453     0.0000
 51 C      6.1565     6.0000    -0.1565     4.0004     4.0004     0.0000
 52 C      5.9328     6.0000     0.0672     3.9548     3.9548     0.0000
 53 C      6.4151     6.0000    -0.4151     3.9328     3.9328    -0.0000
 54 C      6.1643     6.0000    -0.1643     4.0173     4.0173    -0.0000
 55 C      6.2261     6.0000    -0.2261     4.0840     4.0840    -0.0000
 56 C      6.1637     6.0000    -0.1637     4.0243     4.0243    -0.0000
 57 C      5.9269     6.0000     0.0731     3.9541     3.9541    -0.0000
 58 C      6.4159     6.0000    -0.4159     3.9310     3.9310    -0.0000
 59 C      6.1645     6.0000    -0.1645     4.0236     4.0236    -0.0000
 60 C      6.2210     6.0000    -0.2210     4.0672     4.0672    -0.0000
 61 C      6.1822     6.0000    -0.1822     3.9999     3.9999    -0.0000
 62 C      5.9460     6.0000     0.0540     3.9189     3.9189    -0.0000
 63 C      6.3968     6.0000    -0.3968     3.9258     3.9258     0.0000
 64 C      6.3620     6.0000    -0.3620     3.9115     3.9115    -0.0000
 65 H      0.8738     1.0000     0.1262     0.9771     0.9771    -0.0000
 66 H      0.8606     1.0000     0.1394     0.9681     0.9681     0.0000
 67 H      0.8573     1.0000     0.1427     0.9666     0.9666    -0.0000
 68 H      0.9094     1.0000     0.0906     0.9789     0.9789    -0.0000
 69 H      0.9277     1.0000     0.0723     0.9737     0.9737     0.0000
 70 H      0.8721     1.0000     0.1279     0.9682     0.9682    -0.0000
 71 H      0.8712     1.0000     0.1288     0.9748     0.9748    -0.0000
 72 H      0.8713     1.0000     0.1287     0.9737     0.9737    -0.0000
 73 H      0.8795     1.0000     0.1205     0.9946     0.9946    -0.0000
 74 H      0.8904     1.0000     0.1096     0.9731     0.9731    -0.0000
 75 H      0.8737     1.0000     0.1263     0.9957     0.9957    -0.0000
 76 H      0.8733     1.0000     0.1267     0.9786     0.9786    -0.0000
 77 H      0.8598     1.0000     0.1402     0.9674     0.9674     0.0000
 78 H      0.8485     1.0000     0.1515     0.9626     0.9626     0.0000
 79 H      0.8530     1.0000     0.1470     0.9535     0.9535    -0.0000
 80 H      0.8709     1.0000     0.1291     0.9713     0.9713    -0.0000
 81 H      0.8559     1.0000     0.1441     0.9664     0.9664    -0.0000
 82 H      0.8452     1.0000     0.1548     0.9612     0.9612    -0.0000
 83 H      0.8618     1.0000     0.1382     0.9599     0.9599     0.0000
 84 H      0.8633     1.0000     0.1367     0.9742     0.9742     0.0000
 85 H      0.8611     1.0000     0.1389     0.9606     0.9606     0.0000
 86 H      0.8910     1.0000     0.1090     0.9673     0.9673    -0.0000
 87 H      0.8889     1.0000     0.1111     0.9666     0.9666    -0.0000
 88 H      0.8776     1.0000     0.1224     0.9680     0.9680    -0.0000
 89 H      0.8784     1.0000     0.1216     0.9727     0.9727    -0.0000
 90 H      0.8767     1.0000     0.1233     0.9752     0.9752    -0.0000
 91 H      0.8555     1.0000     0.1445     0.9602     0.9602     0.0000
 92 H      0.8542     1.0000     0.1458     0.9827     0.9827    -0.0000
 93 H      0.8546     1.0000     0.1454     0.9594     0.9594    -0.0000
 94 H      0.9033     1.0000     0.0967     1.0096     1.0096     0.0000
 95 H      0.8548     1.0000     0.1452     0.9667     0.9667    -0.0000
 96 H      0.8522     1.0000     0.1478     0.9675     0.9675    -0.0000
 97 H      0.8459     1.0000     0.1541     0.9647     0.9647     0.0000
 98 H      0.8748     1.0000     0.1252     0.9704     0.9704    -0.0000
 99 H      0.8838     1.0000     0.1162     0.9898     0.9898     0.0000
100 H      0.8872     1.0000     0.1128     0.9779     0.9779    -0.0000
101 H      0.8710     1.0000     0.1290     0.9681     0.9681     0.0000
102 H      0.8569     1.0000     0.1431     0.9590     0.9590     0.0000
103 H      0.8689     1.0000     0.1311     0.9752     0.9752    -0.0000
104 H      0.9005     1.0000     0.0995     0.9724     0.9724    -0.0000
105 H      0.9021     1.0000     0.0979     0.9795     0.9795    -0.0000
106 H      0.9008     1.0000     0.0992     0.9729     0.9729     0.0000
107 H      0.9034     1.0000     0.0966     0.9703     0.9703     0.0000
108 H      0.9169     1.0000     0.0831     0.9765     0.9765     0.0000
109 H      0.9183     1.0000     0.0817     0.9793     0.9793     0.0000
110 H      0.9605     1.0000     0.0395     0.9754     0.9754     0.0000
111 H      0.8742     1.0000     0.1258     0.9684     0.9684    -0.0000
112 H      0.8732     1.0000     0.1268     0.9683     0.9683    -0.0000
113 H      0.8949     1.0000     0.1051     0.9778     0.9778    -0.0000
114 H      0.9164     1.0000     0.0836     0.9766     0.9766     0.0000
115 H      0.9220     1.0000     0.0780     0.9788     0.9788    -0.0000
116 H      0.8969     1.0000     0.1031     0.9705     0.9705    -0.0000
117 H      0.9245     1.0000     0.0755     0.9737     0.9737     0.0000
118 H      0.9170     1.0000     0.0830     0.9764     0.9764    -0.0000
119 H      0.9228     1.0000     0.0772     0.9790     0.9790     0.0000
120 H      0.9618     1.0000     0.0382     0.9754     0.9754    -0.0000
121 H      0.8956     1.0000     0.1044     0.9779     0.9779    -0.0000
122 H      0.8742     1.0000     0.1258     0.9684     0.9684     0.0000
123 H      0.8735     1.0000     0.1265     0.9680     0.9680     0.0000
124 H      0.9184     1.0000     0.0816     0.9752     0.9752    -0.0000
125 H      0.9207     1.0000     0.0793     0.9788     0.9788    -0.0000
126 H      0.9115     1.0000     0.0885     0.9721     0.9721    -0.0000
127 H      0.9098     1.0000     0.0902     0.9713     0.9713     0.0000
128 H      0.9187     1.0000     0.0813     0.9805     0.9805    -0.0000
129 H      0.9157     1.0000     0.0843     0.9726     0.9726     0.0000
130 H      0.9490     1.0000     0.0510     0.9687     0.9687    -0.0000
131 H      0.8939     1.0000     0.1061     0.9790     0.9790    -0.0000
132 H      0.8825     1.0000     0.1175     0.9694     0.9694     0.0000
133 H      0.8722     1.0000     0.1278     0.9680     0.9680    -0.0000
134 H      0.8836     1.0000     0.1164     0.9729     0.9729    -0.0000
135 H      0.8809     1.0000     0.1191     0.9701     0.9701    -0.0000
136 H      0.8941     1.0000     0.1059     0.9796     0.9796    -0.0000

  Mayer bond orders larger than 0.100000
B(  0-Mg,  5-N ) :   0.4266 B(  0-Mg, 16-N ) :   0.5513 B(  0-Mg, 24-N ) :   0.4904 
B(  0-Mg, 32-N ) :   0.5644 B(  1-C ,  5-N ) :   0.1592 B(  1-C ,  6-C ) :   1.3218 
B(  1-C , 36-C ) :   1.2287 B(  1-C , 40-C ) :   0.9778 B(  2-C ,  9-C ) :   1.4293 
B(  2-C , 17-C ) :   1.1877 B(  2-C , 65-H ) :   0.9740 B(  3-C , 20-C ) :   1.3067 
B(  3-C , 25-C ) :   1.2919 B(  3-C , 66-H ) :   0.9554 B(  4-C , 28-C ) :   1.2175 
B(  4-C , 33-C ) :   1.3270 B(  4-C , 67-H ) :   0.9941 B(  5-N ,  6-C ) :   1.0335 
B(  5-N ,  9-C ) :   1.2430 B(  6-C ,  7-C ) :   1.0916 B(  7-C ,  8-C ) :   0.9483 
B(  7-C , 11-C ) :   0.9196 B(  7-C , 68-H ) :   0.9072 B(  8-C ,  9-C ) :   1.0406 
B(  8-C , 10-C ) :   0.8977 B(  8-C , 11-C ) :   0.1028 B(  8-C , 69-H ) :   0.8950 
B( 10-C , 70-H ) :   0.9640 B( 10-C , 71-H ) :   0.9630 B( 10-C , 72-H ) :   0.9665 
B( 11-C , 12-C ) :   1.0574 B( 11-C , 73-H ) :   0.9440 B( 11-C , 74-H ) :   0.9368 
B( 12-C , 13-C ) :   1.0447 B( 12-C , 75-H ) :   0.9248 B( 12-C , 76-H ) :   0.8995 
B( 13-C , 14-O ) :   1.9244 B( 13-C , 15-O ) :   1.2412 B( 15-O , 45-C ) :   0.8567 
B( 16-N , 17-C ) :   1.2026 B( 16-N , 20-C ) :   1.1183 B( 17-C , 18-C ) :   1.1869 
B( 18-C , 19-C ) :   1.5118 B( 18-C , 21-C ) :   0.9524 B( 19-C , 20-C ) :   1.1362 
B( 19-C , 22-C ) :   1.0746 B( 21-C , 77-H ) :   0.9547 B( 21-C , 78-H ) :   0.9820 
B( 21-C , 79-H ) :   0.9624 B( 22-C , 23-C ) :   1.8851 B( 22-C , 80-H ) :   0.9535 
B( 23-C , 81-H ) :   0.9499 B( 23-C , 82-H ) :   0.9467 B( 24-N , 25-C ) :   1.2034 
B( 24-N , 28-C ) :   1.1413 B( 25-C , 26-C ) :   1.1629 B( 26-C , 27-C ) :   1.5864 
B( 26-C , 29-C ) :   0.9655 B( 27-C , 28-C ) :   1.1597 B( 27-C , 30-C ) :   0.9765 
B( 29-C , 83-H ) :   0.9644 B( 29-C , 84-H ) :   0.9784 B( 29-C , 85-H ) :   0.9654 
B( 30-C , 31-C ) :   1.0190 B( 30-C , 86-H ) :   0.9339 B( 30-C , 87-H ) :   0.9660 
B( 31-C , 88-H ) :   0.9603 B( 31-C , 89-H ) :   0.9714 B( 31-C , 90-H ) :   0.9688 
B( 32-N , 33-C ) :   1.0787 B( 32-N , 36-C ) :   1.2275 B( 33-C , 34-C ) :   1.2719 
B( 34-C , 35-C ) :   1.4255 B( 34-C , 37-C ) :   0.9674 B( 35-C , 36-C ) :   1.1585 
B( 35-C , 38-C ) :   0.9843 B( 35-C , 39-O ) :  -0.1386 B( 37-C , 91-H ) :   0.9643 
B( 37-C , 92-H ) :   0.9863 B( 37-C , 93-H ) :   0.9617 B( 38-C , 39-O ) :   2.2125 
B( 38-C , 40-C ) :   0.9242 B( 40-C , 41-C ) :   0.9326 B( 40-C , 94-H ) :   0.8734 
B( 41-C , 42-O ) :   1.9724 B( 41-C , 43-O ) :   1.2175 B( 43-O , 44-C ) :   0.9094 
B( 44-C , 95-H ) :   0.9651 B( 44-C , 96-H ) :   0.9651 B( 44-C , 97-H ) :   0.9628 
B( 45-C , 46-C ) :   1.0237 B( 45-C , 98-H ) :   0.9371 B( 45-C , 99-H ) :   0.9481 
B( 46-C , 47-C ) :   1.8746 B( 46-C ,100-H ) :   0.9442 B( 47-C , 48-C ) :   0.9947 
B( 47-C , 49-C ) :   0.9855 B( 48-C ,101-H ) :   0.9539 B( 48-C ,102-H ) :   0.9494 
B( 48-C ,103-H ) :   0.9598 B( 49-C , 50-C ) :   1.0237 B( 49-C ,104-H ) :   0.9340 
B( 49-C ,105-H ) :   0.9392 B( 50-C , 51-C ) :   1.0581 B( 50-C ,106-H ) :   0.9522 
B( 50-C ,107-H ) :   0.9420 B( 51-C , 52-C ) :   1.0276 B( 51-C ,108-H ) :   0.9340 
B( 51-C ,109-H ) :   0.9343 B( 52-C , 53-C ) :   0.9552 B( 52-C , 54-C ) :   1.0295 
B( 52-C ,110-H ) :   0.9234 B( 53-C ,111-H ) :   0.9686 B( 53-C ,112-H ) :   0.9691 
B( 53-C ,113-H ) :   0.9618 B( 54-C , 55-C ) :   1.0703 B( 54-C ,114-H ) :   0.9388 
B( 54-C ,115-H ) :   0.9336 B( 55-C , 56-C ) :   1.0729 B( 55-C ,116-H ) :   0.9467 
B( 55-C ,117-H ) :   0.9310 B( 56-C , 57-C ) :   1.0327 B( 56-C ,118-H ) :   0.9385 
B( 56-C ,119-H ) :   0.9324 B( 57-C , 58-C ) :   0.9514 B( 57-C , 59-C ) :   1.0351 
B( 57-C ,120-H ) :   0.9217 B( 58-C ,121-H ) :   0.9622 B( 58-C ,122-H ) :   0.9685 
B( 58-C ,123-H ) :   0.9690 B( 59-C , 60-C ) :   1.0674 B( 59-C ,124-H ) :   0.9374 
B( 59-C ,125-H ) :   0.9331 B( 60-C , 61-C ) :   1.0555 B( 60-C ,126-H ) :   0.9384 
B( 60-C ,127-H ) :   0.9442 B( 61-C , 62-C ) :   1.0213 B( 61-C ,128-H ) :   0.9447 
B( 61-C ,129-H ) :   0.9399 B( 62-C , 63-C ) :   0.9844 B( 62-C , 64-C ) :   0.9887 
B( 62-C ,130-H ) :   0.9314 B( 63-C ,131-H ) :   0.9647 B( 63-C ,132-H ) :   0.9658 
B( 63-C ,133-H ) :   0.9707 B( 64-C ,134-H ) :   0.9683 B( 64-C ,135-H ) :   0.9702 
B( 64-C ,136-H ) :   0.9655 

-------
TIMINGS
-------

Total SCF time: 0 days 0 hours 33 min 38 sec 

Total time                  ....    2018.726 sec
Sum of individual times     ....    1953.582 sec  ( 96.8%)

SCF preparation             ....      13.656 sec  (  0.7%)
Fock matrix formation       ....    1788.386 sec  ( 88.6%)
  Startup                   ....       0.824 sec  (  0.0% of F)
  Split-RI-J                ....     447.133 sec  ( 25.0% of F)
  XC integration            ....     795.096 sec  ( 44.5% of F)
    XC Preparation          ....       0.000 sec  (  0.0% of XC)
    Basis function eval.    ....     129.359 sec  ( 16.3% of XC)
    Density eval.           ....     371.015 sec  ( 46.7% of XC)
    XC-Functional eval.     ....      12.506 sec  (  1.6% of XC)
    XC-Potential eval.      ....     264.753 sec  ( 33.3% of XC)
  CPCM terms                ....     618.413 sec  ( 34.6% of F)
Diagonalization             ....       0.000 sec  (  0.0%)
Density matrix formation    ....       8.996 sec  (  0.4%)
Total Energy calculation    ....       3.947 sec  (  0.2%)
Population analysis         ....       6.528 sec  (  0.3%)
Orbital Transformation      ....      16.567 sec  (  0.8%)
Orbital Orthonormalization  ....       0.000 sec  (  0.0%)
DIIS solution               ....      66.745 sec  (  3.3%)
SOSCF solution              ....      36.047 sec  (  1.8%)
Finished LeanSCF after 2037.5 sec

Maximum memory used throughout the entire LEANSCF-calculation: 674.4 MB


           ************************************************************
           *        Program running with 4 parallel MPI-processes     *
           *              working on a common directory               *
           ************************************************************

------------------------------------------------------------------------------
                         ORCA PROPERTY INTEGRAL CALCULATIONS
------------------------------------------------------------------------------

GBWName                                   ... tddft.gbw
Number of atoms                           ...    137
Number of basis functions                 ...   2448
Max core memory                           ...   2200 MB

Dipole integrals                          ... YES
Quadrupole integrals                      ...  NO
Linear momentum integrals                 ... YES
Angular momentum integrals                ... YES
Higher moments length integrals           ...  NO
Higher moments velocity integrals         ...  NO
Kinetic energy integrals                  ...  NO
GIAO right hand sides                     ...  NO
GIAO dipole derivative integrals          ...  NO
SOC integrals                             ...  NO
EPR diamagnetic integrals (GIAO)          ...  NO
EPR gauge integrals                       ...  NO
Field gradient integrals                  ...  NO (   0 nuclei)
Spin-dipole/Fermi contact integrals       ...  NO (   0 nuclei)
Contact density integrals                 ...  NO (   0 nuclei)
Nucleus-orbit integrals                   ...  NO (   0 nuclei)
Geometric perturbations                   ...  NO ( 137 nuclei)

Choice of electric origin   ... Center of mass
Position of electric origin ... ( -0.0351, -0.0377, -0.2776) 
Choice of magnetic origin   ... GIAO
Position of magnetic origin ... (  0.0000,  0.0000,  0.0000) 

Calculating integrals                     ... Electric Dipole (Length)     done (  0.9 sec)
Calculating integrals                     ... Linear Momentum              done (  1.6 sec)
Calculating integrals                     ... Angular Momentum  (ElOri)    done (  1.7 sec)

Property integrals calculated in   4.4 sec

Maximum memory used throughout the entire PROPINT-calculation: 471.7 MB


           ************************************************************
           *        Program running with 4 parallel MPI-processes     *
           *              working on a common directory               *
           ************************************************************
------------------------------------------------------------------------------
                          ORCA TD-DFT CALCULATION
------------------------------------------------------------------------------

Input orbitals are from        ... tddft.gbw
CI-vector output               ... tddft.cis
Solver                         ... FN-2001
Tamm-Dancoff approximation     ... deactivated
RPA-Integral strategy          ... AO-integrals
Integral handling              ... AO integral Direct
Max. core memory used          ... 2200 MB
Reference state                ... RHF
Generation of triplets         ... off
Follow IRoot                   ... off
Number of operators            ... 1
Orbital ranges used for CIS calculation:
 Operator 0:  Orbitals  65...240  to 241...2447
XAS localization array:
 Operator 0:  Orbitals  -1... -1

-------------------
XC-INTEGRATION GRID
-------------------

General Integration Accuracy     IntAcc      ... 3.467
Radial Grid Type                 RadialGrid  ... OptM3 with GC (2021)
Angular Grid (max. ang.)         AngularGrid ... 3 (Lebedev-194)
Angular grid pruning method      GridPruning ... 4 (adaptive)
Weight generation scheme         WeightScheme... mBecke (2022)
Basis function cutoff            BFCut       ... 1.0000e-11
Integration weight cutoff        WCut        ... 1.0000e-14
Partially contracted basis set               ... off
Rotationally invariant grid construction     ... off
Angular grids for H and He will be reduced by one unit

Total number of grid points                  ...   230376
Total number of batches                      ...     3674
Average number of points per batch           ...       62
Average number of grid points per atom       ...     1682

---------------
TD-DFT XC SETUP
---------------

DFT calculation                         ... on
Name of the grid file                   ... tddft.grid_cis.tmp
RI-approximation                        ... on
Aux-basis dimension                     ... 0
Exchange functional (TD-DFT)            ... TPSS
Correlation functional (TD-DFT)         ... TPSS

Building densities             ... done
Calculating rho(r) on the grid ... done
Building xc-kernel on the grid ... done
                    *** TD-DFT CALCULATION INITIALIZED ***

---------------------------------
    LR-CPCM (non-equilibrium)
---------------------------------

Setting up CPCM data             ... done

-------------------
RPA-DIAGONALIZATION
-------------------

Dimension of the (A+B)(A-B) eigenvalue problem ... 388432
Number of roots to be determined               ...     30
Maximum size of the expansion space            ...    900
Convergence tolerance for the residual         ...    2.500e-07
Convergence tolerance for the energies         ...    2.500e-07
Orthogonality tolerance                        ...    1.000e-14
Constructing the preconditioner                ... o.k.
Building the initial guess                     ... o.k.
Number of trial vectors determined             ...    900


                       ****Iteration    0****
   Time for iteration     :  TOTAL=3451.9 TRAFO=57.5 RIJ=599.4 XC=1199.4 CPCM=1572.0
   Size of expansion space: 90
   Lowest Energy          :     0.080161684712
   Maximum Energy change  :     0.152311454838 (vector 29)
   Maximum residual norm  :     0.024315212078

                       ****Iteration    1****
   Time for iteration     :  TOTAL=1545.5 TRAFO=22.2 RIJ=246.7 XC=625.1 CPCM=634.0
   Size of expansion space: 120
   Lowest Energy          :     0.073267892186
   Maximum Energy change  :     0.007561603068 (vector 10)
   Maximum residual norm  :     0.001334248129

                       ****Iteration    2****
   Time for iteration     :  TOTAL=1741.5 TRAFO=24.8 RIJ=273.8 XC=787.1 CPCM=644.1
   Size of expansion space: 150
   Lowest Energy          :     0.073001921925
   Maximum Energy change  :     0.000511217455 (vector 25)
   Maximum residual norm  :     0.000176889285

                       ****Iteration    3****
   Time for iteration     :  TOTAL=2060.4 TRAFO=31.7 RIJ=324.1 XC=960.9 CPCM=727.7
   Size of expansion space: 180
   Lowest Energy          :     0.072980097136
   Maximum Energy change  :     0.000053280384 (vector 25)
   Maximum residual norm  :     0.000070613946

                       ****Iteration    4****
   Time for iteration     :  TOTAL=2095.5 TRAFO=38.1 RIJ=313.5 XC=1008.9 CPCM=723.9
   Size of expansion space: 210
   Lowest Energy          :     0.072968734784
   Maximum Energy change  :     0.000037998211 (vector 22)
   Maximum residual norm  :     0.000013131851

                       ****Iteration    5****
   Time for iteration     :  TOTAL=2256.2 TRAFO=43.3 RIJ=280.6 XC=1146.9 CPCM=766.3
   Size of expansion space: 240
   Lowest Energy          :     0.072967532427
   Maximum Energy change  :     0.000004896605 (vector 25)
   Maximum residual norm  :     0.000004010812

                       ****Iteration    6****
   Time for iteration     :  TOTAL=2482.2 TRAFO=43.0 RIJ=333.2 XC=1324.9 CPCM=757.5
   Size of expansion space: 270
   Lowest Energy          :     0.072967417650
   Maximum Energy change  :     0.000001444265 (vector 29)
   Maximum residual norm  :     0.000000828621

                       ****Iteration    7****
   Time for iteration     :  TOTAL=2434.3 TRAFO=44.7 RIJ=337.3 XC=1261.2 CPCM=776.9
   Size of expansion space: 300
   Lowest Energy          :     0.072967390972
   Maximum Energy change  :     0.000000311379 (vector 22)
   Maximum residual norm  :     0.000000349121

                       ****Iteration    8****
   Time for iteration     :  TOTAL=2455.2 TRAFO=45.1 RIJ=315.5 XC=1338.3 CPCM=741.5
   Size of expansion space: 330
   Lowest Energy          :     0.072967386579
   Maximum Energy change  :     0.000000121762 (vector 29)

         *** CONVERGENCE OF ENERGIES REACHED ***

Storing the converged CI vectors               ... tddft.cis1

                 *** DAVIDSON DONE ***

Total time for solving the RPA problem: 22265.268sec

--------------------------------
TD-DFT EXCITED STATES (SINGLETS)
--------------------------------

the weight of the individual excitations are printed if larger than 1.0e-02

STATE  1:  E=   0.072967 au      1.986 eV    16014.5 cm**-1 <S**2> =   0.000000 Mult 1
   239a -> 242a  :     0.095037 
   240a -> 241a  :     0.879797 

STATE  2:  E=   0.076601 au      2.084 eV    16811.9 cm**-1 <S**2> =   0.000000 Mult 1
   239a -> 241a  :     0.798438 
   240a -> 242a  :     0.168944 

STATE  3:  E=   0.090109 au      2.452 eV    19776.6 cm**-1 <S**2> =   0.000000 Mult 1
   238a -> 241a  :     0.967410 

STATE  4:  E=   0.095083 au      2.587 eV    20868.3 cm**-1 <S**2> =   0.000000 Mult 1
   237a -> 241a  :     0.975813 

STATE  5:  E=   0.101319 au      2.757 eV    22236.9 cm**-1 <S**2> =   0.000000 Mult 1
   235a -> 241a  :     0.011849 
   239a -> 241a  :     0.082240 
   239a -> 242a  :     0.155856 
   239a -> 243a  :     0.114558 
   240a -> 242a  :     0.576825 

STATE  6:  E=   0.102074 au      2.778 eV    22402.6 cm**-1 <S**2> =   0.000000 Mult 1
   235a -> 241a  :     0.285890 
   236a -> 241a  :     0.712499 

STATE  7:  E=   0.103052 au      2.804 eV    22617.3 cm**-1 <S**2> =   0.000000 Mult 1
   235a -> 241a  :     0.676004 
   236a -> 241a  :     0.280941 
   239a -> 242a  :     0.032068 

STATE  8:  E=   0.105835 au      2.880 eV    23228.1 cm**-1 <S**2> =   0.000000 Mult 1
   233a -> 241a  :     0.031181 
   234a -> 241a  :     0.040456 
   235a -> 241a  :     0.024527 
   239a -> 241a  :     0.032381 
   239a -> 242a  :     0.502324 
   239a -> 243a  :     0.014802 
   240a -> 241a  :     0.046875 
   240a -> 242a  :     0.116378 
   240a -> 243a  :     0.140011 

STATE  9:  E=   0.115652 au      3.147 eV    25382.7 cm**-1 <S**2> =   0.000000 Mult 1
   234a -> 241a  :     0.638061 
   240a -> 243a  :     0.309235 

STATE 10:  E=   0.117898 au      3.208 eV    25875.6 cm**-1 <S**2> =   0.000000 Mult 1
   234a -> 241a  :     0.071247 
   237a -> 242a  :     0.016148 
   238a -> 242a  :     0.670323 
   239a -> 242a  :     0.030136 
   239a -> 243a  :     0.025231 
   240a -> 242a  :     0.020999 
   240a -> 243a  :     0.103072 

STATE 11:  E=   0.118112 au      3.214 eV    25922.6 cm**-1 <S**2> =   0.000000 Mult 1
   234a -> 241a  :     0.175371 
   237a -> 242a  :     0.048224 
   238a -> 242a  :     0.226920 
   239a -> 241a  :     0.010824 
   239a -> 242a  :     0.064280 
   239a -> 243a  :     0.045748 
   240a -> 241a  :     0.012773 
   240a -> 242a  :     0.010871 
   240a -> 243a  :     0.357059 

STATE 12:  E=   0.123501 au      3.361 eV    27105.3 cm**-1 <S**2> =   0.000000 Mult 1
   233a -> 241a  :     0.024376 
   234a -> 241a  :     0.017828 
   237a -> 242a  :     0.796274 
   239a -> 243a  :     0.057410 
   240a -> 242a  :     0.011839 
   240a -> 243a  :     0.028606 
   240a -> 244a  :     0.019053 

STATE 13:  E=   0.124230 au      3.380 eV    27265.3 cm**-1 <S**2> =   0.000000 Mult 1
   230a -> 241a  :     0.020271 
   231a -> 241a  :     0.011902 
   233a -> 241a  :     0.112504 
   237a -> 242a  :     0.110926 
   238a -> 242a  :     0.034781 
   239a -> 242a  :     0.056387 
   239a -> 243a  :     0.544260 
   240a -> 241a  :     0.018019 
   240a -> 244a  :     0.038696 

STATE 14:  E=   0.126071 au      3.431 eV    27669.4 cm**-1 <S**2> =   0.000000 Mult 1
   231a -> 241a  :     0.024234 
   232a -> 241a  :     0.951585 
   233a -> 241a  :     0.013888 

STATE 15:  E=   0.128226 au      3.489 eV    28142.4 cm**-1 <S**2> =   0.000000 Mult 1
   235a -> 242a  :     0.019905 
   236a -> 242a  :     0.978550 

STATE 16:  E=   0.128701 au      3.502 eV    28246.5 cm**-1 <S**2> =   0.000000 Mult 1
   231a -> 241a  :     0.042091 
   233a -> 241a  :     0.010441 
   235a -> 242a  :     0.920123 
   236a -> 242a  :     0.020602 

STATE 17:  E=   0.128865 au      3.507 eV    28282.7 cm**-1 <S**2> =   0.000000 Mult 1
   228a -> 241a  :     0.017511 
   231a -> 241a  :     0.789349 
   233a -> 241a  :     0.063137 
   235a -> 242a  :     0.053620 
   239a -> 243a  :     0.031238 

STATE 18:  E=   0.129490 au      3.524 eV    28419.8 cm**-1 <S**2> =   0.000000 Mult 1
   228a -> 241a  :     0.029841 
   230a -> 241a  :     0.260549 
   231a -> 241a  :     0.068726 
   232a -> 241a  :     0.029888 
   233a -> 241a  :     0.430178 
   239a -> 243a  :     0.073801 
   240a -> 242a  :     0.016566 
   240a -> 244a  :     0.023674 

STATE 19:  E=   0.131125 au      3.568 eV    28778.6 cm**-1 <S**2> =   0.000000 Mult 1
   229a -> 241a  :     0.872451 
   230a -> 241a  :     0.104291 

STATE 20:  E=   0.132506 au      3.606 eV    29081.7 cm**-1 <S**2> =   0.000000 Mult 1
   228a -> 241a  :     0.042355 
   229a -> 241a  :     0.115550 
   230a -> 241a  :     0.521243 
   231a -> 241a  :     0.034046 
   233a -> 241a  :     0.203813 
   234a -> 242a  :     0.014254 

STATE 21:  E=   0.137765 au      3.749 eV    30236.0 cm**-1 <S**2> =   0.000000 Mult 1
   228a -> 241a  :     0.019995 
   238a -> 243a  :     0.931892 
   239a -> 244a  :     0.011691 

STATE 22:  E=   0.139091 au      3.785 eV    30527.0 cm**-1 <S**2> =   0.000000 Mult 1
   228a -> 241a  :     0.026328 
   234a -> 242a  :     0.021496 
   237a -> 243a  :     0.040393 
   239a -> 243a  :     0.029040 
   240a -> 244a  :     0.678963 
   240a -> 245a  :     0.116497 

STATE 23:  E=   0.141160 au      3.841 eV    30981.0 cm**-1 <S**2> =   0.000000 Mult 1
   228a -> 241a  :     0.018052 
   233a -> 241a  :     0.013861 
   234a -> 241a  :     0.012745 
   234a -> 242a  :     0.804982 
   237a -> 243a  :     0.037655 
   238a -> 243a  :     0.010850 
   240a -> 244a  :     0.039459 
   240a -> 245a  :     0.025251 

STATE 24:  E=   0.142187 au      3.869 eV    31206.4 cm**-1 <S**2> =   0.000000 Mult 1
   228a -> 241a  :     0.419669 
   230a -> 241a  :     0.029280 
   233a -> 242a  :     0.019156 
   237a -> 243a  :     0.359005 
   240a -> 244a  :     0.079171 
   240a -> 245a  :     0.013804 

STATE 25:  E=   0.142369 au      3.874 eV    31246.3 cm**-1 <S**2> =   0.000000 Mult 1
   228a -> 241a  :     0.113682 
   234a -> 242a  :     0.081721 
   237a -> 243a  :     0.421260 
   238a -> 243a  :     0.010325 
   239a -> 244a  :     0.018373 
   240a -> 244a  :     0.011371 
   240a -> 245a  :     0.298627 

STATE 26:  E=   0.144273 au      3.926 eV    31664.4 cm**-1 <S**2> =   0.000000 Mult 1
   228a -> 241a  :     0.208782 
   230a -> 241a  :     0.013157 
   233a -> 242a  :     0.017899 
   234a -> 243a  :     0.010869 
   237a -> 243a  :     0.109083 
   239a -> 244a  :     0.021026 
   240a -> 244a  :     0.046643 
   240a -> 245a  :     0.484515 

STATE 27:  E=   0.145317 au      3.954 eV    31893.5 cm**-1 <S**2> =   0.000000 Mult 1
   234a -> 242a  :     0.013226 
   239a -> 244a  :     0.814467 
   239a -> 245a  :     0.024230 
   240a -> 245a  :     0.039385 
   240a -> 246a  :     0.022889 

STATE 28:  E=   0.148053 au      4.029 eV    32494.0 cm**-1 <S**2> =   0.000000 Mult 1
   239a -> 244a  :     0.016722 
   240a -> 246a  :     0.962008 

STATE 29:  E=   0.149921 au      4.080 eV    32903.9 cm**-1 <S**2> =   0.000000 Mult 1
   226a -> 241a  :     0.819364 
   227a -> 241a  :     0.180478 

STATE 30:  E=   0.150553 au      4.097 eV    33042.7 cm**-1 <S**2> =   0.000000 Mult 1
   227a -> 241a  :     0.032587 
   239a -> 244a  :     0.020265 
   239a -> 245a  :     0.898132 


-----------------------------
 TD-DFT-EXCITATION SPECTRA
-----------------------------

Center of mass = ( -0.0351, -0.0377, -0.2776)
Generating RPA transition densities
 done

----------------------------------------------------------------------------------------------------
                     ABSORPTION SPECTRUM VIA TRANSITION ELECTRIC DIPOLE MOMENTS    
----------------------------------------------------------------------------------------------------
     Transition      Energy     Energy  Wavelength fosc(D2)      D2        DX        DY        DZ   
                      (eV)      (cm-1)    (nm)                 (au**2)    (au)      (au)      (au)  
----------------------------------------------------------------------------------------------------
  0-1A  ->  1-1A    1.985544   16014.5   624.4   0.354764977   7.29295  -0.32105  -1.97520   1.81341
  0-1A  ->  2-1A    2.084410   16811.9   594.8   0.061131262   1.19708   0.94987  -0.49559  -0.22186
  0-1A  ->  3-1A    2.451989   19776.6   505.6   0.002745422   0.04570   0.16374  -0.13210   0.03795
  0-1A  ->  4-1A    2.587342   20868.3   479.2   0.010854603   0.17124   0.34041  -0.23050  -0.04724
  0-1A  ->  5-1A    2.757029   22236.9   449.7   0.392074235   5.80455  -2.06868   0.35450   1.18298
  0-1A  ->  6-1A    2.777569   22402.6   446.4   0.000573518   0.00843   0.04494  -0.04325   0.06737
  0-1A  ->  7-1A    2.804186   22617.3   442.1   0.017155491   0.24971  -0.09265  -0.37198   0.32056
  0-1A  ->  8-1A    2.879922   23228.1   430.5   0.520122514   7.37169  -0.66826   2.27794  -1.31762
  0-1A  ->  9-1A    3.147057   25382.7   394.0   0.008597855   0.11151   0.23578  -0.21251  -0.10374
  0-1A  -> 10-1A    3.208164   25875.6   386.5   0.056621405   0.72039   0.67921  -0.50651  -0.05008
  0-1A  -> 11-1A    3.213992   25922.6   385.8   0.337958865   4.29201   0.79671  -1.69668   0.88236
  0-1A  -> 12-1A    3.360625   27105.3   368.9   0.151721268   1.84276  -0.95228   0.94377  -0.21267
  0-1A  -> 13-1A    3.380467   27265.3   366.8   0.466501113   5.63272   1.17263   1.20623  -1.67411
  0-1A  -> 14-1A    3.430563   27669.4   361.4   0.008356685   0.09943  -0.28784   0.06717   0.10985
  0-1A  -> 15-1A    3.489211   28142.4   355.3   0.000372969   0.00436  -0.04911  -0.03243   0.03000
  0-1A  -> 16-1A    3.502123   28246.5   354.0   0.002713049   0.03162   0.14375  -0.09476  -0.04447
  0-1A  -> 17-1A    3.506608   28282.7   353.6   0.044696993   0.52027   0.59251  -0.05202  -0.40805
  0-1A  -> 18-1A    3.523603   28419.8   351.9   0.087893220   1.01815   0.86975  -0.35912  -0.36429
  0-1A  -> 19-1A    3.568096   28778.6   347.5   0.004329390   0.04953   0.01574   0.15762  -0.15632
  0-1A  -> 20-1A    3.605665   29081.7   343.9   0.060063515   0.67993   0.16742  -0.66867   0.45254
  0-1A  -> 21-1A    3.748788   30236.0   330.7   0.001257515   0.01369  -0.06107  -0.06577   0.07508
  0-1A  -> 22-1A    3.784869   30527.0   327.6   0.114867123   1.23876   0.97930  -0.44700  -0.28269
  0-1A  -> 23-1A    3.841156   30981.0   322.8   0.065936255   0.70066  -0.63709  -0.11151   0.53135
  0-1A  -> 24-1A    3.869106   31206.4   320.4   0.050857598   0.53652  -0.27664   0.58497  -0.34322
  0-1A  -> 25-1A    3.874046   31246.3   320.0   0.053338972   0.56198   0.57471   0.04873  -0.47887
  0-1A  -> 26-1A    3.925879   31664.4   315.8   0.120019144   1.24783   0.93832  -0.56621  -0.21630
  0-1A  -> 27-1A    3.954285   31893.5   313.5   0.191805308   1.97986   0.98362  -0.98871   0.18654
  0-1A  -> 28-1A    4.028737   32494.0   307.7   0.016008834   0.16219   0.08181   0.31309  -0.23974
  0-1A  -> 29-1A    4.079558   32903.9   303.9   0.000003108   0.00003   0.00390  -0.00391  -0.00079
  0-1A  -> 30-1A    4.096767   33042.7   302.6   0.116538997   1.16111   0.90536  -0.52164  -0.26327

----------------------------------------------------------------------------------------------------
                     ABSORPTION SPECTRUM VIA TRANSITION VELOCITY DIPOLE MOMENTS    
----------------------------------------------------------------------------------------------------
     Transition      Energy     Energy  Wavelength fosc(P2)      P2        PX        PY        PZ   
                      (eV)      (cm-1)    (nm)                 (au**2)    (au)      (au)      (au)  
----------------------------------------------------------------------------------------------------
  0-1A  ->  1-1A    1.985544   16014.5   624.4   0.338443783   0.03704   0.02290   0.14073  -0.12928
  0-1A  ->  2-1A    2.084410   16811.9   594.8   0.059125709   0.00679  -0.07157   0.03728   0.01680
  0-1A  ->  3-1A    2.451989   19776.6   505.6   0.002521236   0.00034  -0.01401   0.01151  -0.00348
  0-1A  ->  4-1A    2.587342   20868.3   479.2   0.010373675   0.00148  -0.03158   0.02155   0.00421
  0-1A  ->  5-1A    2.757029   22236.9   449.7   0.373995487   0.05684   0.20473  -0.03514  -0.11700
  0-1A  ->  6-1A    2.777569   22402.6   446.4   0.000554955   0.00008  -0.00451   0.00436  -0.00675
  0-1A  ->  7-1A    2.804186   22617.3   442.1   0.016444351   0.00254   0.00944   0.03745  -0.03241
  0-1A  ->  8-1A    2.879922   23228.1   430.5   0.498792204   0.07918   0.06896  -0.23604   0.13680
  0-1A  ->  9-1A    3.147057   25382.7   394.0   0.008097670   0.00140  -0.02646   0.02384   0.01168
  0-1A  -> 10-1A    3.208164   25875.6   386.5   0.054557355   0.00965  -0.07874   0.05844   0.00569
  0-1A  -> 11-1A    3.213992   25922.6   385.8   0.323230140   0.05727  -0.09178   0.19600  -0.10211
  0-1A  -> 12-1A    3.360625   27105.3   368.9   0.144248322   0.02672   0.11492  -0.11348   0.02528
  0-1A  -> 13-1A    3.380467   27265.3   366.8   0.445510755   0.08302  -0.14247  -0.14629   0.20327
  0-1A  -> 14-1A    3.430563   27669.4   361.4   0.008019165   0.00152   0.03558  -0.00828  -0.01348
  0-1A  -> 15-1A    3.489211   28142.4   355.3   0.000360860   0.00007   0.00621   0.00401  -0.00385
  0-1A  -> 16-1A    3.502123   28246.5   354.0   0.002591131   0.00050  -0.01817   0.01186   0.00542
  0-1A  -> 17-1A    3.506608   28282.7   353.6   0.042955470   0.00830  -0.07495   0.00656   0.05140
  0-1A  -> 18-1A    3.523603   28419.8   351.9   0.084082871   0.01633  -0.11027   0.04546   0.04589
  0-1A  -> 19-1A    3.568096   28778.6   347.5   0.004157118   0.00082  -0.00213  -0.02023   0.02009
  0-1A  -> 20-1A    3.605665   29081.7   343.9   0.057572685   0.01144  -0.02140   0.08677  -0.05879
  0-1A  -> 21-1A    3.748788   30236.0   330.7   0.001163044   0.00024   0.00802   0.00886  -0.00988
  0-1A  -> 22-1A    3.784869   30527.0   327.6   0.110146147   0.02298  -0.13337   0.06098   0.03840
  0-1A  -> 23-1A    3.841156   30981.0   322.8   0.063295377   0.01340   0.08802   0.01565  -0.07354
  0-1A  -> 24-1A    3.869106   31206.4   320.4   0.048579627   0.01036   0.03851  -0.08127   0.04768
  0-1A  -> 25-1A    3.874046   31246.3   320.0   0.050865751   0.01086  -0.07995  -0.00675   0.06653
  0-1A  -> 26-1A    3.925879   31664.4   315.8   0.114387211   0.02475  -0.13214   0.07989   0.03021
  0-1A  -> 27-1A    3.954285   31893.5   313.5   0.183844902   0.04007  -0.14016   0.14047  -0.02638
  0-1A  -> 28-1A    4.028737   32494.0   307.7   0.015266309   0.00339  -0.01184  -0.04533   0.03457
  0-1A  -> 29-1A    4.079558   32903.9   303.9   0.000002906   0.00000  -0.00062   0.00052   0.00004
  0-1A  -> 30-1A    4.096767   33042.7   302.6   0.112098582   0.02532  -0.13372   0.07698   0.03881

------------------------------------------------------------------------------------------
                     CD SPECTRUM VIA TRANSITION ELECTRIC DIPOLE MOMENTS    
------------------------------------------------------------------------------------------
     Transition      Energy     Energy  Wavelength    R        MX        MY        MZ   
                      (eV)      (cm-1)    (nm)   (1e40*cgs)   (au)      (au)      (au)  
------------------------------------------------------------------------------------------
  0-1A  ->  1-1A    1.985544   16014.5   624.4   -2.22149   0.36963   1.11707   1.28477
  0-1A  ->  2-1A    2.084410   16811.9   594.8    1.83144  -0.17163  -0.29372  -0.06119
  0-1A  ->  3-1A    2.451989   19776.6   505.6    4.66994  -0.13140  -0.13398  -0.16043
  0-1A  ->  4-1A    2.587342   20868.3   479.2   -0.60881  -0.12767  -0.17845  -0.07660
  0-1A  ->  5-1A    2.757029   22236.9   449.7   17.56606   0.19610   0.84024   0.05964
  0-1A  ->  6-1A    2.777569   22402.6   446.4   -2.34308   0.00370   0.00568   0.07496
  0-1A  ->  7-1A    2.804186   22617.3   442.1   40.65507   0.03687   0.36906   0.16990
  0-1A  ->  8-1A    2.879922   23228.1   430.5  -42.51128  -0.12209  -0.84555  -1.46832
  0-1A  ->  9-1A    3.147057   25382.7   394.0    9.92082   0.13211   0.09522   0.30806
  0-1A  -> 10-1A    3.208164   25875.6   386.5    5.50659   0.22701   0.25607   0.72207
  0-1A  -> 11-1A    3.213992   25922.6   385.8  -12.43355   0.00069   0.53770   1.06320
  0-1A  -> 12-1A    3.360625   27105.3   368.9  -10.58414  -0.24341  -0.44637  -0.99650
  0-1A  -> 13-1A    3.380467   27265.3   366.8   57.83057  -0.17424  -1.28214  -0.97258
  0-1A  -> 14-1A    3.430563   27669.4   361.4    6.95161   0.04259   0.13989  -0.10818
  0-1A  -> 15-1A    3.489211   28142.4   355.3    1.55533   0.01660   0.06472  -0.01284
  0-1A  -> 16-1A    3.502123   28246.5   354.0    1.81106   0.00044   0.01819   0.04905
  0-1A  -> 17-1A    3.506608   28282.7   353.6   30.81112  -0.07010  -0.36419   0.10481
  0-1A  -> 18-1A    3.523603   28419.8   351.9    9.51538  -0.01623  -0.20721   0.22092
  0-1A  -> 19-1A    3.568096   28778.6   347.5    0.74057  -0.01011  -0.11412  -0.10604
  0-1A  -> 20-1A    3.605665   29081.7   343.9  -15.86124   0.00879   0.30121   0.51616
  0-1A  -> 21-1A    3.748788   30236.0   330.7    0.41583   0.08926   0.15864   0.19983
  0-1A  -> 22-1A    3.784869   30527.0   327.6    0.52934  -0.14906  -0.38588   0.09774
  0-1A  -> 23-1A    3.841156   30981.0   322.8    1.41086  -0.04206   0.35458   0.01836
  0-1A  -> 24-1A    3.869106   31206.4   320.4    0.38913  -0.00045  -0.24917  -0.42190
  0-1A  -> 25-1A    3.874046   31246.3   320.0    4.99120   0.08659  -0.24877   0.10072
  0-1A  -> 26-1A    3.925879   31664.4   315.8    5.79872  -0.11521  -0.28617   0.30618
  0-1A  -> 27-1A    3.954285   31893.5   313.5   18.93155  -0.05363   0.13782   0.79803
  0-1A  -> 28-1A    4.028737   32494.0   307.7    1.64485  -0.00733  -0.18594  -0.23077
  0-1A  -> 29-1A    4.079558   32903.9   303.9    0.00071   0.00505   0.00223   0.01586
  0-1A  -> 30-1A    4.096767   33042.7   302.6  -28.31257   0.02363  -0.27230   0.39269

------------------------------------------------------------------------------------------
                     CD SPECTRUM VIA TRANSITION VELOCITY DIPOLE MOMENTS    
------------------------------------------------------------------------------------------
     Transition      Energy     Energy  Wavelength    R        MX        MY        MZ   
                      (eV)      (cm-1)    (nm)   (1e40*cgs)   (au)      (au)      (au)  
------------------------------------------------------------------------------------------
  0-1A  ->  1-1A    1.985544   16014.5   624.4   -2.71260   0.36963   1.11707   1.28477
  0-1A  ->  2-1A    2.084410   16811.9   594.8    1.88583  -0.17163  -0.29372  -0.06119
  0-1A  ->  3-1A    2.451989   19776.6   505.6    4.48633  -0.13140  -0.13398  -0.16043
  0-1A  ->  4-1A    2.587342   20868.3   479.2   -0.67058  -0.12767  -0.17845  -0.07660
  0-1A  ->  5-1A    2.757029   22236.9   449.7   16.95567   0.19610   0.84024   0.05964
  0-1A  ->  6-1A    2.777569   22402.6   446.4   -2.30025   0.00370   0.00568   0.07496
  0-1A  ->  7-1A    2.804186   22617.3   442.1   39.62653   0.03687   0.36906   0.16990
  0-1A  ->  8-1A    2.879922   23228.1   430.5  -43.17759  -0.12209  -0.84555  -1.46832
  0-1A  ->  9-1A    3.147057   25382.7   394.0    9.66189   0.13211   0.09522   0.30806
  0-1A  -> 10-1A    3.208164   25875.6   386.5    4.79494   0.22701   0.25607   0.72207
  0-1A  -> 11-1A    3.213992   25922.6   385.8  -12.94933   0.00069   0.53770   1.06320
  0-1A  -> 12-1A    3.360625   27105.3   368.9   -9.56993  -0.24341  -0.44637  -0.99650
  0-1A  -> 13-1A    3.380467   27265.3   366.8   55.74222  -0.17424  -1.28214  -0.97258
  0-1A  -> 14-1A    3.430563   27669.4   361.4    6.79118   0.04259   0.13989  -0.10818
  0-1A  -> 15-1A    3.489211   28142.4   355.3    1.51400   0.01660   0.06472  -0.01284
  0-1A  -> 16-1A    3.502123   28246.5   354.0    1.73519   0.00044   0.01819   0.04905
  0-1A  -> 17-1A    3.506608   28282.7   353.6   30.19003  -0.07010  -0.36419   0.10481
  0-1A  -> 18-1A    3.523603   28419.8   351.9    9.13160  -0.01623  -0.20721   0.22092
  0-1A  -> 19-1A    3.568096   28778.6   347.5    0.71930  -0.01011  -0.11412  -0.10604
  0-1A  -> 20-1A    3.605665   29081.7   343.9  -15.64314   0.00879   0.30121   0.51616
  0-1A  -> 21-1A    3.748788   30236.0   330.7    0.50152   0.08926   0.15864   0.19983
  0-1A  -> 22-1A    3.784869   30527.0   327.6    0.35369  -0.14906  -0.38588   0.09774
  0-1A  -> 23-1A    3.841156   30981.0   322.8    1.66288  -0.04206   0.35458   0.01836
  0-1A  -> 24-1A    3.869106   31206.4   320.4    0.39077  -0.00045  -0.24917  -0.42190
  0-1A  -> 25-1A    3.874046   31246.3   320.0    4.82153   0.08659  -0.24877   0.10072
  0-1A  -> 26-1A    3.925879   31664.4   315.8    5.26595  -0.11521  -0.28617   0.30618
  0-1A  -> 27-1A    3.954285   31893.5   313.5   18.89685  -0.05363   0.13782   0.79803
  0-1A  -> 28-1A    4.028737   32494.0   307.7    1.71390  -0.00733  -0.18594  -0.23077
  0-1A  -> 29-1A    4.079558   32903.9   303.9   -0.00441   0.00505   0.00223   0.01586
  0-1A  -> 30-1A    4.096767   33042.7   302.6  -27.81314   0.02363  -0.27230   0.39269

Total run time:    22466.180 sec

           *** ORCA-CIS/TD-DFT FINISHED WITHOUT ERROR ***
-----------------------
CIS/TD-DFT TOTAL ENERGY
-----------------------

    E(SCF)  =  -2936.122165939 Eh
    DE(CIS) =      0.072967387 Eh (Root  1)
    ----------------------------- ---------
    E(tot)  =  -2936.049198553 Eh


Maximum memory used throughout the entire CIS-calculation: 2319.0 MB
=> NOW LEAVING ORCA_CIS

-------------------------   --------------------
FINAL SINGLE POINT ENERGY     -2936.049198552619
-------------------------   --------------------



           ************************************************************
           *        Program running with 4 parallel MPI-processes     *
           *              working on a common directory               *
           ************************************************************

------------------------------------------------------------------------------
                              ORCA PROPERTY CALCULATIONS
------------------------------------------------------------------------------

GBWName                                 ... tddft.gbw
Number of atoms                         ...    137
Number of basis functions               ...   2448
Max core memory                         ...   2200 MB

Electric properties:
Dipole moment                           ... YES
Quadrupole moment                       ...  NO
Static polarizability (Dipole/Dipole)   ...  NO
Static polarizability (Dipole/Quad.)    ...  NO
Static polarizability (Quad./Quad.)     ...  NO
Static polarizability (Velocity)        ...  NO
Static hyperpolarizability              ...  NO

Atomic electric properties:
Dipole moment                           ...  NO
Quadrupole moment                       ...  NO
Static polarizability                   ...  NO

Choice of electric origin               ... Center of mass
Position of electric origin             ...    -0.035095    -0.037699    -0.277632

General magnetic properties:
Magnetizability                         ...  NO

EPR properties:
g-Tensor (aka g-matrix)                 ...  NO
Zero-Field splitting spin-orbit         ...  NO
Zero-field splitting spin-spin          ...  NO
Hyperfine couplings                     ...  NO (   0 nuclei)
Quadrupole couplings                    ...  NO (   0 nuclei)
Contact density                         ...  NO (   0 nuclei)

NMR properties:
Chemical shifts                         ...  NO (   0 nuclei)
Spin-rotation constants                 ...  NO (   0 nuclei)
Spin-spin couplings                     ...  NO (   0 nuclei,    0 pairs)

Choice of magnetic origin               ... GIAO
Position of magnetic origin             ...     0.000000     0.000000     0.000000

Properties with geometric perturbations:
SCF Hessian                             ...  NO
IR spectrum                             ...  NO
VCD spectrum                            ...  NO
X-ray spectroscopy properties:
SCF XES/XAS/RIXS spectra                ...  NO

SCF SOC stabilization energy            ...  NO
Diagonal Born-Oppenheimer correction    ...  NO

-------------
DIPOLE MOMENT
-------------

Method             : SCF
Type of density    : Electron Density
Multiplicity       :   1
Irrep              :   0
Energy             : -2936.1221659391976573 Eh
Basis              : AO
                                X                 Y                 Z
Electronic contribution:    281.254746871      20.839951102     -19.546842307
Nuclear contribution   :   -282.757873404     -22.950399894      21.290669736
                        -----------------------------------------
Total Dipole Moment    :     -1.503126534      -2.110448792       1.743827429
                        -----------------------------------------
Magnitude (a.u.)       :      3.123190289
Magnitude (Debye)      :      7.938518830



--------------------
Rotational spectrum 
--------------------
 
Rotational constants in cm-1:             0.001822             0.000215             0.000199 
Rotational constants in MHz :            54.623989             6.434735             5.973951 

Dipole components along the rotational axes: 
x,y,z [a.u.] :     1.585957     2.663231    -0.382439 
x,y,z [Debye]:     4.031183     6.769395    -0.972082 

 

Dipole moment calculation done in   0.4 sec 

Maximum memory used throughout the entire PROP-calculation: 402.3 MB

--------------------------------
SUGGESTED CITATIONS FOR THIS RUN
--------------------------------

Below you find a list of papers that are relevant to this ORCA run
We neither can nor want to force you to cite these papers, but we appreciate if you do
You receive ORCA, which is the product of decades of hard work by many enthusiastic individuals, for free
The only thing we kindly ask in return is that you cite our papers,
We deeply appreciate it, if you show your appreciation for ORCA by not just citing the generic ORCA reference.

Please note that relegating all ORCA citations to the supporting information does *not* help us.
SI sections are not indexed - citations you put there will not count into any citation statistics
But we need these citations in order to attract the funding resources that allow us to do what we are doing

Therefore, if you are a happy ORCA user, please consider citing a few of the papers listed below in the main body of your paper

In addition to the list printed below, the program has created the file tddft.bibtex that contains the list in bibtex format
You can import this file easily into all common literature databanks and citation aid programs

It goes without saying that in many instances, there are alternative algorithms to achieve similar
results as the ones you have gotten from ORCA. It is, of course, also the case that in some instances
ORCA just re-implements algorithms worked out by others. We are fully aware of that and we are also
fully appreciative of our colleagues work. Hence this citation list should not be read as indicating
that the listed papers, which are focused on our own work, are the only ones worth citing. It simply
meant to make it easier for users to cite ORCA specific papers. It is not a substitute for doing your
own literature research and citing the relevant literature in a scientifically appropriate manner.

List of essential papers. We consider these as the minimum necessary citations

  1. Neese, F.
     Software update: the ORCA program system, version 6.0
     WIRES Comput. Molec. Sci. 2025 15(1), e70019
     doi.org/10.1002/wcms.70019

List of papers to cite with high priority. The work reported in these papers was absolutely
necessary for this run to complete.
Our perspective: the developers of density functionals and basis sets usually get cited in chemistry papers
Good! But without the algorithms to do something with them, the functionals or basis sets would not do anything.
Hence, in our opinion, the algorithm design and method developments papers are equally worthy of getting cited

  1. Neese, F.; Olbrich, G.
     Efficient use of the resolution of the identity approximation in time-dependent density functional calculations with hybrid density functionals
     Chem. Phys. Lett. 2002 362 , 170-178
     doi.org/10.1016/s0009-2614(02)01053-9
  2. Neese, F.
     An improvement of the resolution of the identity approximation for the formation of the Coulomb matrix
     J. Comp. Chem. 2003 24(14), 1740-1747
     doi.org/10.1002/jcc.10318
  3. Garcia-Rates, M.; Neese, F.
     Effect of the Solute Cavity on the Solvation Energy and its Derivatives within the Framework of the Gaussian Charge Scheme
     J. Comput. Chem. 2020 41 , 922-939
     doi.org/10.1002/jcc.26139
  4. Neese, F.
     The SHARK Integral Generation and Digestion System
     J. Comp. Chem. 2022 44(3), 381
     doi.org/10.1002/jcc.26942

List of suggested additional citations. These are papers that are important in the 'surrounding' of 
of this run, or papers that preceded the highly important papers. If you like your results we are grateful for a citation.

  1. Neese, F.
     The ORCA program system
     WIRES Comput. Molec. Sci. 2012 2(1), 73-78
     doi.org/10.1002/wcms.81
  2. Neese, F.
     Software update: the ORCA program system, version 4.0
     WIRES Comput. Molec. Sci. 2018 8(1), 1-6
     doi.org/10.1002/wcms.1327
  3. Neese, F.; Wennmohs, F.; Becker, U.; Riplinger, C.
     The ORCA quantum chemistry program package
     J. Chem. Phys. 2020 152(22), 224108
     doi.org/10.1063/5.0004608
  4. Neese, F.
     Software update: The ORCA program system—Version 5.0
     WIRES Comput. Molec. Sci. 2022 12(1), e1606
     doi.org/10.1002/wcms.1606

List of optional additional citations

  1. Neese, F.
     Approximate second-order SCF convergence for spin unrestricted wavefunctions
     Chem. Phys. Lett. 2000 325(1-3), 93-98
     doi.org/10.1016/s0009-2614(00)00662-x

Timings for individual modules:

Sum of individual times          ...    24596.579 sec (= 409.943 min)
Startup calculation              ...       47.172 sec (=   0.786 min)   0.2 %
SCF iterations                   ...     2073.556 sec (=  34.559 min)   8.4 %
Property integrals               ...        6.593 sec (=   0.110 min)   0.0 %
Property calculations            ...        2.149 sec (=   0.036 min)   0.0 %
CIS module                       ...    22467.110 sec (= 374.452 min)  91.3 %
                             ****ORCA TERMINATED NORMALLY****
TOTAL RUN TIME: 0 days 6 hours 49 minutes 57 seconds 286 msec
